[TITLE]
;; Lightweight Python drainage model exported as a SWMM-compatible INP

[OPTIONS]
FLOW_UNITS           CMS
INFILTRATION         HORTON
FLOW_ROUTING         DYNWAVE
LINK_OFFSETS         DEPTH
MIN_SLOPE            0.00001
ALLOW_PONDING        NO
START_DATE           01/01/2026
START_TIME           00:00:00
REPORT_START_DATE    01/01/2026
REPORT_START_TIME    00:00:00
END_DATE             01/01/2026
END_TIME             03:00:00
REPORT_STEP          00:05:00
ROUTING_STEP         00:00:30

[JUNCTIONS]
;;Name           Elevation  MaxDepth   InitDepth  SurDepth   Aponded
POINT239         3.460      2.000      0.000      0.000      0.000
POINT240         5.769      2.000      0.000      0.000      0.000
POINT241         3.031      2.000      0.000      0.000      0.000
POINT242         4.663      2.000      0.000      0.000      0.000
POINT243         3.322      2.000      0.000      0.000      0.000
POINT244         3.141      2.000      0.000      0.000      0.000
POINT246         3.945      2.000      0.000      0.000      0.000
POINT247         3.256      2.000      0.000      0.000      0.000
POINT248         3.323      2.000      0.000      0.000      0.000
POINT249         4.252      2.000      0.000      0.000      0.000
POINT251         5.667      2.000      0.000      0.000      0.000
POINT252         2.622      2.000      0.000      0.000      0.000
POINT253         2.390      2.000      0.000      0.000      0.000
POINT254         2.679      2.000      0.000      0.000      0.000
POINT255         2.348      2.000      0.000      0.000      0.000
POINT256         7.784      2.000      0.000      0.000      0.000
POINT258         1.988      2.000      0.000      0.000      0.000
POINT259         2.402      2.000      0.000      0.000      0.000
POINT260         3.565      2.000      0.000      0.000      0.000
POINT262         2.720      2.000      0.000      0.000      0.000
POINT263         2.306      2.000      0.000      0.000      0.000
POINT264         3.686      2.000      0.000      0.000      0.000
POINT265         13.494     2.000      0.000      0.000      0.000
POINT266         28.261     2.000      0.000      0.000      0.000
POINT267         2.273      2.000      0.000      0.000      0.000
POINT268         2.379      2.000      0.000      0.000      0.000
POINT270         2.588      2.000      0.000      0.000      0.000
POINT271         2.396      2.000      0.000      0.000      0.000
POINT272         2.636      2.000      0.000      0.000      0.000
POINT273         2.996      2.000      0.000      0.000      0.000
POINT275         6.536      2.000      0.000      0.000      0.000
POINT276         3.762      2.000      0.000      0.000      0.000
POINT277         3.134      2.000      0.000      0.000      0.000
POINT278         1.762      2.000      0.000      0.000      0.000
POINT279         4.351      2.000      0.000      0.000      0.000
POINT280         6.861      2.000      0.000      0.000      0.000
POINT281         22.293     2.000      0.000      0.000      0.000
POINT282         11.920     2.000      0.000      0.000      0.000
POINT283         16.757     2.000      0.000      0.000      0.000
POINT284         5.548      2.000      0.000      0.000      0.000
POINT285         8.813      2.000      0.000      0.000      0.000
POINT286         7.443      2.000      0.000      0.000      0.000
POINT287         13.146     2.000      0.000      0.000      0.000
POINT288         18.632     2.000      0.000      0.000      0.000
POINT289         28.105     2.000      0.000      0.000      0.000
POINT290         30.052     2.000      0.000      0.000      0.000
POINT291         32.558     2.000      0.000      0.000      0.000
POINT293         2.309      2.000      0.000      0.000      0.000
POINT294         3.450      2.000      0.000      0.000      0.000
POINT296         4.701      2.000      0.000      0.000      0.000
POINT297         11.597     2.000      0.000      0.000      0.000
POINT299         2.070      2.000      0.000      0.000      0.000
POINT300         3.982      2.000      0.000      0.000      0.000
POINT302         2.233      2.000      0.000      0.000      0.000
POINT303         6.314      2.000      0.000      0.000      0.000
POINT304         1.561      2.000      0.000      0.000      0.000
POINT305         3.167      2.000      0.000      0.000      0.000
POINT306         1.464      2.000      0.000      0.000      0.000
POINT307         13.490     2.000      0.000      0.000      0.000
POINT309         3.599      2.000      0.000      0.000      0.000
POINT311         3.911      2.000      0.000      0.000      0.000
POINT312         9.249      2.000      0.000      0.000      0.000
POINT313         10.238     2.000      0.000      0.000      0.000
POINT315         4.206      2.000      0.000      0.000      0.000
POINT316         18.867     2.000      0.000      0.000      0.000
POINT317         20.077     2.000      0.000      0.000      0.000
POINT319         3.580      2.000      0.000      0.000      0.000
POINT320         6.366      2.000      0.000      0.000      0.000
POINT321         3.639      2.000      0.000      0.000      0.000
POINT322         2.931      2.000      0.000      0.000      0.000
POINT323         2.965      2.000      0.000      0.000      0.000
POINT324         5.025      2.000      0.000      0.000      0.000
POINT325         11.833     2.000      0.000      0.000      0.000
POINT326         3.166      2.000      0.000      0.000      0.000
POINT327         3.145      2.000      0.000      0.000      0.000
POINT328         7.360      2.000      0.000      0.000      0.000
POINT329         4.736      2.000      0.000      0.000      0.000
POINT330         39.744     2.000      0.000      0.000      0.000
POINT331         5.125      2.000      0.000      0.000      0.000
POINT332         3.966      2.000      0.000      0.000      0.000
POINT333         4.101      2.000      0.000      0.000      0.000
POINT334         4.345      2.000      0.000      0.000      0.000
POINT336         10.112     2.000      0.000      0.000      0.000
POINT337         27.796     2.000      0.000      0.000      0.000
POINT339         14.021     2.000      0.000      0.000      0.000
POINT340         25.343     2.000      0.000      0.000      0.000
POINT341         55.598     2.000      0.000      0.000      0.000
POINT343         15.044     2.000      0.000      0.000      0.000
POINT344         21.678     2.000      0.000      0.000      0.000
POINT345         22.935     2.000      0.000      0.000      0.000
POINT346         47.797     2.000      0.000      0.000      0.000
POINT347         81.623     2.000      0.000      0.000      0.000
POINT348         111.667    2.000      0.000      0.000      0.000
POINT349         43.526     2.000      0.000      0.000      0.000
POINT351         11.880     2.000      0.000      0.000      0.000
POINT353         3.925      2.000      0.000      0.000      0.000
POINT354         3.096      2.000      0.000      0.000      0.000
POINT355         3.210      2.000      0.000      0.000      0.000
POINT356         5.939      2.000      0.000      0.000      0.000
POINT357         2.934      2.000      0.000      0.000      0.000
POINT358         3.076      2.000      0.000      0.000      0.000
POINT359         24.161     2.000      0.000      0.000      0.000
POINT360         80.300     2.000      0.000      0.000      0.000
POINT361         81.412     2.000      0.000      0.000      0.000
POINT363         2.990      2.000      0.000      0.000      0.000
POINT365         5.243      2.000      0.000      0.000      0.000
POINT367         3.878      2.000      0.000      0.000      0.000
POINT368         16.122     2.000      0.000      0.000      0.000
POINT369         4.111      2.000      0.000      0.000      0.000
POINT370         7.137      2.000      0.000      0.000      0.000
POINT371         36.013     2.000      0.000      0.000      0.000
POINT373         13.657     2.000      0.000      0.000      0.000
POINT374         4.264      2.000      0.000      0.000      0.000
POINT375         13.138     2.000      0.000      0.000      0.000
POINT376         42.193     2.000      0.000      0.000      0.000
POINT377         80.708     2.000      0.000      0.000      0.000
POINT378         30.892     2.000      0.000      0.000      0.000
POINT379         84.956     2.000      0.000      0.000      0.000
POINT380         89.025     2.000      0.000      0.000      0.000
POINT381         141.544    2.000      0.000      0.000      0.000
POINT382         34.778     2.000      0.000      0.000      0.000
POINT383         81.115     2.000      0.000      0.000      0.000
POINT385         109.586    2.000      0.000      0.000      0.000
POINT387         23.414     2.000      0.000      0.000      0.000
POINT388         28.413     2.000      0.000      0.000      0.000
POINT505         10.971     2.000      0.000      0.000      0.000
OUT014           8.592      2.000      0.000      0.000      0.000
OUT001           5.538      2.000      0.000      0.000      0.000

[OUTFALLS]
;;Name           Elevation  Type       Stage Data  Gated
OUT027           -2.000     FREE       NO
OUT026           -2.000     FREE       NO
OUT025           -1.000     FREE       NO
OUT024           -1.000     FREE       NO
OUT023           -2.000     FREE       NO
OUT022           -1.000     FREE       NO
OUT021           2.466      FREE       NO
OUT020           1.000      FREE       NO
OUT019           4.000      FREE       NO
OUT018           1.000      FREE       NO
OUT017           0.000      FREE       NO
OUT016           2.710      FREE       NO
OUT015           -1.000     FREE       NO
OUT013           3.000      FREE       NO
OUT012           8.104      FREE       NO
OUT011           8.299      FREE       NO
OUT010           6.077      FREE       NO
OUT009           5.511      FREE       NO
OUT008           -2.000     FREE       NO
OUT007           -2.000     FREE       NO
OUT006           -0.606     FREE       NO
OUT005           0.095      FREE       NO
OUT004           -0.480     FREE       NO
OUT003           62.225     FREE       NO
OUT002           0.000      FREE       NO
OUT014_OF        8.582      FREE       NO
OUT001_OF        5.528      FREE       NO

[CONDUITS]
;;Name           FromNode         ToNode           Length     Roughness  InOffset   OutOffset  InitFlow   MaxFlow
pip173           POINT242         POINT241         578.07     0.0130     0.000      0.000      0.000      0.000
pip174           POINT243         POINT241         231.11     0.0130     0.000      0.000      0.000      0.000
pip175           POINT240         POINT243         295.40     0.0130     0.000      0.000      0.000      0.000
pip176           POINT240         POINT239         416.41     0.0130     0.000      0.000      0.000      0.000
pip177           POINT239         OUT027           186.77     0.0130     0.000      0.000      0.000      0.000
pip178           POINT243         POINT244         501.06     0.0130     0.000      0.000      0.000      0.000
pip179           POINT249         POINT248         419.44     0.0130     0.000      0.000      0.000      0.000
pip180           POINT248         POINT247         484.45     0.0130     0.000      0.000      0.000      0.000
pip181           POINT246         POINT247         243.90     0.0130     0.000      0.000      0.000      0.000
pip182           POINT246         OUT026           492.82     0.0130     0.000      0.000      0.000      0.000
pip183           POINT256         POINT254         636.55     0.0130     0.000      0.000      0.000      0.000
pip184           POINT254         POINT253         289.75     0.0130     0.000      0.000      0.000      0.000
pip185           POINT253         POINT255         273.76     0.0130     0.000      0.000      0.000      0.000
pip186           POINT252         POINT253         200.09     0.0130     0.000      0.000      0.000      0.000
pip187           POINT251         POINT252         303.19     0.0130     0.000      0.000      0.000      0.000
pip188           POINT251         OUT025           680.15     0.0130     0.000      0.000      0.000      0.000
pip189           POINT260         POINT259         373.92     0.0130     0.000      0.000      0.000      0.000
pip190           POINT259         POINT258         476.99     0.0130     0.000      0.000      0.000      0.000
pip191           POINT258         OUT024           663.98     0.0130     0.000      0.000      0.000      0.000
pip192           POINT266         POINT265         429.58     0.0130     0.000      0.000      0.000      0.000
pip193           POINT265         POINT264         555.70     0.0130     0.000      0.000      0.000      0.000
pip194           POINT264         POINT263         650.53     0.0130     0.000      0.000      0.000      0.000
pip195           POINT262         POINT263         490.27     0.0130     0.000      0.000      0.000      0.000
pip196           POINT263         POINT267         457.82     0.0130     0.000      0.000      0.000      0.000
pip197           POINT262         POINT268         508.91     0.0130     0.000      0.000      0.000      0.000
pip198           POINT262         OUT023           426.47     0.0130     0.000      0.000      0.000      0.000
pip199           POINT291         POINT290         389.75     0.0130     0.000      0.000      0.000      0.000
pip200           POINT290         POINT505         814.55     0.0130     0.000      0.000      0.000      0.000
pip201           POINT505         POINT285         613.51     0.0130     0.000      0.000      0.000      0.000
pip202           POINT289         POINT288         370.40     0.0130     0.000      0.000      0.000      0.000
pip203           POINT288         POINT287         417.05     0.0130     0.000      0.000      0.000      0.000
pip204           POINT287         POINT286         354.86     0.0130     0.000      0.000      0.000      0.000
pip205           POINT286         POINT284         760.44     0.0130     0.000      0.000      0.000      0.000
pip206           POINT285         POINT284         652.90     0.0130     0.000      0.000      0.000      0.000
pip207           POINT284         POINT270         1164.43    0.0130     0.000      0.000      0.000      0.000
pip208           POINT270         POINT271         504.34     0.0130     0.000      0.000      0.000      0.000
pip209           POINT273         POINT272         509.86     0.0130     0.000      0.000      0.000      0.000
pip210           POINT272         POINT270         513.99     0.0130     0.000      0.000      0.000      0.000
pip211           POINT270         OUT022           605.38     0.0130     0.000      0.000      0.000      0.000
pip212           POINT283         POINT282         406.30     0.0130     0.000      0.000      0.000      0.000
pip213           POINT282         POINT280         336.68     0.0130     0.000      0.000      0.000      0.000
pip214           POINT280         POINT279         266.31     0.0130     0.000      0.000      0.000      0.000
pip215           POINT279         POINT277         389.04     0.0130     0.000      0.000      0.000      0.000
pip216           POINT276         POINT277         488.16     0.0130     0.000      0.000      0.000      0.000
pip217           POINT275         POINT276         681.07     0.0130     0.000      0.000      0.000      0.000
pip218           POINT307         POINT279         421.35     0.0130     0.000      0.000      0.000      0.000
pip219           POINT279         POINT278         866.20     0.0130     0.000      0.000      0.000      0.000
pip220           POINT275         POINT278         675.09     0.0130     0.000      0.000      0.000      0.000
pip221           POINT275         OUT021           343.68     0.0130     0.000      0.000      0.000      0.000
pip222           POINT294         POINT293         546.08     0.0130     0.000      0.000      0.000      0.000
pip223           POINT293         OUT020           510.32     0.0130     0.000      0.000      0.000      0.000
pip224           POINT297         POINT296         496.86     0.0130     0.000      0.000      0.000      0.000
pip225           POINT296         OUT019           547.78     0.0130     0.000      0.000      0.000      0.000
pip226           POINT300         POINT299         410.63     0.0130     0.000      0.000      0.000      0.000
pip227           POINT299         OUT018           417.10     0.0130     0.000      0.000      0.000      0.000
pip228           POINT303         POINT302         417.59     0.0130     0.000      0.000      0.000      0.000
pip229           POINT302         POINT304         382.39     0.0130     0.000      0.000      0.000      0.000
pip230           POINT305         POINT302         332.90     0.0130     0.000      0.000      0.000      0.000
pip231           POINT305         OUT017           167.14     0.0130     0.000      0.000      0.000      0.000
pip232           POINT305         POINT306         677.95     0.0130     0.000      0.000      0.000      0.000
pip233           POINT281         POINT280         485.16     0.0130     0.000      0.000      0.000      0.000
pip234           POINT309         OUT016           439.11     0.0130     0.000      0.000      0.000      0.000
pip235           POINT313         POINT311         650.79     0.0130     0.000      0.000      0.000      0.000
pip236           POINT312         POINT311         593.15     0.0130     0.000      0.000      0.000      0.000
pip237           POINT311         OUT015           884.39     0.0130     0.000      0.000      0.000      0.000
pip238           POINT317         POINT316         466.52     0.0130     0.000      0.000      0.000      0.000
pip239           POINT316         POINT315         376.64     0.0130     0.000      0.000      0.000      0.000
pip240           POINT325         POINT315         583.72     0.0130     0.000      0.000      0.000      0.000
pip241           OUT014           POINT315         273.06     0.0130     0.000      0.000      0.000      0.000
pip242           POINT324         POINT323         417.73     0.0130     0.000      0.000      0.000      0.000
pip243           POINT323         POINT322         363.82     0.0130     0.000      0.000      0.000      0.000
pip244           POINT320         POINT322         461.15     0.0130     0.000      0.000      0.000      0.000
pip245           POINT320         POINT321         209.95     0.0130     0.000      0.000      0.000      0.000
pip246           POINT320         POINT319         359.35     0.0130     0.000      0.000      0.000      0.000
pip247           POINT319         OUT013           318.92     0.0130     0.000      0.000      0.000      0.000
pip248           POINT332         POINT321         309.01     0.0130     0.000      0.000      0.000      0.000
pip249           POINT334         POINT333         326.72     0.0130     0.000      0.000      0.000      0.000
pip250           POINT333         POINT332         366.38     0.0130     0.000      0.000      0.000      0.000
pip251           POINT341         POINT340         635.24     0.0130     0.000      0.000      0.000      0.000
pip252           POINT340         POINT339         428.52     0.0130     0.000      0.000      0.000      0.000
pip253           POINT339         OUT011           443.78     0.0130     0.000      0.000      0.000      0.000
pip254           POINT337         POINT336         479.01     0.0130     0.000      0.000      0.000      0.000
pip255           POINT336         OUT012           427.42     0.0130     0.000      0.000      0.000      0.000
pip256           POINT348         POINT346         545.17     0.0130     0.000      0.000      0.000      0.000
pip257           POINT347         POINT346         456.43     0.0130     0.000      0.000      0.000      0.000
pip258           POINT346         POINT345         345.00     0.0130     0.000      0.000      0.000      0.000
pip259           POINT349         POINT345         522.61     0.0130     0.000      0.000      0.000      0.000
pip260           POINT345         POINT343         139.27     0.0130     0.000      0.000      0.000      0.000
pip261           POINT344         POINT343         389.48     0.0130     0.000      0.000      0.000      0.000
pip262           POINT343         OUT010           329.23     0.0130     0.000      0.000      0.000      0.000
pip264           POINT351         OUT009           467.95     0.0130     0.000      0.000      0.000      0.000
pip265           POINT330         POINT329         666.42     0.0130     0.000      0.000      0.000      0.000
pip266           POINT331         POINT329         394.46     0.0130     0.000      0.000      0.000      0.000
pip267           POINT328         POINT329         225.08     0.0130     0.000      0.000      0.000      0.000
pip268           POINT328         POINT327         414.39     0.0130     0.000      0.000      0.000      0.000
pip269           POINT326         POINT327         471.34     0.0130     0.000      0.000      0.000      0.000
pip270           POINT319         POINT326         330.69     0.0130     0.000      0.000      0.000      0.000
pip271           POINT361         POINT359         630.73     0.0130     0.000      0.000      0.000      0.000
pip272           POINT359         POINT357         625.39     0.0130     0.000      0.000      0.000      0.000
pip273           POINT360         POINT359         844.21     0.0130     0.000      0.000      0.000      0.000
pip274           POINT358         POINT357         308.40     0.0130     0.000      0.000      0.000      0.000
pip275           POINT355         POINT357         647.37     0.0130     0.000      0.000      0.000      0.000
pip276           POINT353         POINT355         536.86     0.0130     0.000      0.000      0.000      0.000
pip277           POINT356         POINT355         577.96     0.0130     0.000      0.000      0.000      0.000
pip278           POINT353         POINT354         601.25     0.0130     0.000      0.000      0.000      0.000
pip279           POINT353         OUT008           508.96     0.0130     0.000      0.000      0.000      0.000
pip280           POINT385         OUT003           542.97     0.0130     0.000      0.000      0.000      0.000
pip281           POINT363         OUT007           395.19     0.0130     0.000      0.000      0.000      0.000
pip282           POINT365         OUT006           683.90     0.0130     0.000      0.000      0.000      0.000
pip283           POINT383         POINT382         726.22     0.0130     0.000      0.000      0.000      0.000
pip284           POINT382         POINT374         1024.15    0.0130     0.000      0.000      0.000      0.000
pip285           POINT374         POINT369         150.35     0.0130     0.000      0.000      0.000      0.000
pip286           POINT368         POINT367         350.05     0.0130     0.000      0.000      0.000      0.000
pip287           POINT367         OUT005           306.23     0.0130     0.000      0.000      0.000      0.000
pip288           POINT381         POINT376         563.75     0.0130     0.000      0.000      0.000      0.000
pip289           POINT377         POINT376         605.39     0.0130     0.000      0.000      0.000      0.000
pip290           POINT376         POINT378         264.88     0.0130     0.000      0.000      0.000      0.000
pip291           POINT380         POINT379         431.97     0.0130     0.000      0.000      0.000      0.000
pip292           POINT379         POINT378         307.84     0.0130     0.000      0.000      0.000      0.000
pip293           POINT378         POINT375         389.63     0.0130     0.000      0.000      0.000      0.000
pip294           POINT375         POINT374         268.22     0.0130     0.000      0.000      0.000      0.000
pip295           POINT371         POINT370         714.82     0.0130     0.000      0.000      0.000      0.000
pip296           POINT370         POINT369         346.94     0.0130     0.000      0.000      0.000      0.000
pip297           OUT001           POINT369         96.13      0.0130     0.000      0.000      0.000      0.000
pip298           POINT373         OUT004           462.53     0.0130     0.000      0.000      0.000      0.000
pip299           POINT388         POINT387         621.67     0.0130     0.000      0.000      0.000      0.000
pip300           POINT387         OUT002           640.40     0.0130     0.000      0.000      0.000      0.000
OUT_LINK_OUT014  OUT014           OUT014_OF        20.00      0.0130     0.000      0.000      0.000      0.000
OUT_LINK_OUT001  OUT001           OUT001_OF        20.00      0.0130     0.000      0.000      0.000      0.000

[XSECTIONS]
;;Link           Shape      Geom1      Geom2  Geom3  Geom4  Barrels
pip173           CIRCULAR   4.900      0      0      0      1
pip174           CIRCULAR   4.900      0      0      0      1
pip175           CIRCULAR   6.250      0      0      0      1
pip176           CIRCULAR   6.100      0      0      0      1
pip177           CIRCULAR   4.900      0      0      0      1
pip178           CIRCULAR   1.500      0      0      0      1
pip179           CIRCULAR   2.440      0      0      0      1
pip180           CIRCULAR   3.800      0      0      0      1
pip181           CIRCULAR   4.600      0      0      0      1
pip182           CIRCULAR   4.600      0      0      0      1
pip183           CIRCULAR   5.000      0      0      0      1
pip184           CIRCULAR   6.050      0      0      0      1
pip185           CIRCULAR   6.050      0      0      0      1
pip186           CIRCULAR   6.500      0      0      0      1
pip187           CIRCULAR   5.000      0      0      0      1
pip188           CIRCULAR   6.150      0      0      0      1
pip189           CIRCULAR   3.000      0      0      0      1
pip190           CIRCULAR   5.800      0      0      0      1
pip191           CIRCULAR   6.900      0      0      0      1
pip192           CIRCULAR   1.650      0      0      0      1
pip193           CIRCULAR   5.050      0      0      0      1
pip194           CIRCULAR   5.650      0      0      0      1
pip195           CIRCULAR   6.000      0      0      0      1
pip196           CIRCULAR   3.700      0      0      0      1
pip197           CIRCULAR   5.250      0      0      0      1
pip198           CIRCULAR   4.800      0      0      0      1
pip199           CIRCULAR   3.100      0      0      0      1
pip200           CIRCULAR   4.000      0      0      0      1
pip201           CIRCULAR   3.100      0      0      0      1
pip202           CIRCULAR   2.600      0      0      0      1
pip203           CIRCULAR   3.200      0      0      0      1
pip204           CIRCULAR   4.500      0      0      0      1
pip205           CIRCULAR   8.000      0      0      0      1
pip206           CIRCULAR   3.100      0      0      0      1
pip207           CIRCULAR   4.800      0      0      0      1
pip208           CIRCULAR   4.800      0      0      0      1
pip209           CIRCULAR   4.600      0      0      0      1
pip210           CIRCULAR   4.800      0      0      0      1
pip211           CIRCULAR   4.800      0      0      0      1
pip212           CIRCULAR   3.450      0      0      0      1
pip213           CIRCULAR   4.500      0      0      0      1
pip214           CIRCULAR   4.500      0      0      0      1
pip215           CIRCULAR   6.300      0      0      0      1
pip216           CIRCULAR   4.500      0      0      0      1
pip217           CIRCULAR   6.450      0      0      0      1
pip218           CIRCULAR   3.600      0      0      0      1
pip219           CIRCULAR   6.300      0      0      0      1
pip220           CIRCULAR   4.800      0      0      0      1
pip221           CIRCULAR   4.500      0      0      0      1
pip222           CIRCULAR   4.000      0      0      0      1
pip223           CIRCULAR   6.600      0      0      0      1
pip224           CIRCULAR   1.350      0      0      0      1
pip225           CIRCULAR   3.025      0      0      0      1
pip226           CIRCULAR   2.590      0      0      0      1
pip227           CIRCULAR   2.590      0      0      0      1
pip228           CIRCULAR   3.500      0      0      0      1
pip229           CIRCULAR   5.400      0      0      0      1
pip230           CIRCULAR   4.200      0      0      0      1
pip231           CIRCULAR   4.200      0      0      0      1
pip232           CIRCULAR   5.100      0      0      0      1
pip233           CIRCULAR   4.500      0      0      0      1
pip234           CIRCULAR   2.400      0      0      0      1
pip235           CIRCULAR   3.775      0      0      0      1
pip236           CIRCULAR   2.100      0      0      0      1
pip237           CIRCULAR   3.350      0      0      0      1
pip238           CIRCULAR   4.400      0      0      0      1
pip239           CIRCULAR   4.800      0      0      0      1
pip240           CIRCULAR   4.300      0      0      0      1
pip241           CIRCULAR   7.350      0      0      0      1
pip242           CIRCULAR   5.300      0      0      0      1
pip243           CIRCULAR   5.000      0      0      0      1
pip244           CIRCULAR   6.050      0      0      0      1
pip245           CIRCULAR   5.000      0      0      0      1
pip246           CIRCULAR   5.000      0      0      0      1
pip247           CIRCULAR   6.350      0      0      0      1
pip248           CIRCULAR   5.000      0      0      0      1
pip249           CIRCULAR   5.000      0      0      0      1
pip250           CIRCULAR   5.000      0      0      0      1
pip251           CIRCULAR   1.500      0      0      0      1
pip252           CIRCULAR   1.425      0      0      0      1
pip253           CIRCULAR   1.425      0      0      0      1
pip254           CIRCULAR   2.250      0      0      0      1
pip255           CIRCULAR   4.800      0      0      0      1
pip256           CIRCULAR   1.800      0      0      0      1
pip257           CIRCULAR   4.830      0      0      0      1
pip258           CIRCULAR   3.048      0      0      0      1
pip259           CIRCULAR   3.900      0      0      0      1
pip260           CIRCULAR   3.048      0      0      0      1
pip261           CIRCULAR   4.000      0      0      0      1
pip262           CIRCULAR   3.048      0      0      0      1
pip264           CIRCULAR   3.630      0      0      0      1
pip265           CIRCULAR   3.350      0      0      0      1
pip266           CIRCULAR   2.700      0      0      0      1
pip267           CIRCULAR   4.000      0      0      0      1
pip268           CIRCULAR   4.000      0      0      0      1
pip269           CIRCULAR   4.000      0      0      0      1
pip270           CIRCULAR   4.000      0      0      0      1
pip271           CIRCULAR   2.700      0      0      0      1
pip272           CIRCULAR   4.115      0      0      0      1
pip273           CIRCULAR   3.000      0      0      0      1
pip274           CIRCULAR   1.650      0      0      0      1
pip275           CIRCULAR   4.120      0      0      0      1
pip276           CIRCULAR   4.120      0      0      0      1
pip277           CIRCULAR   3.300      0      0      0      1
pip278           CIRCULAR   4.120      0      0      0      1
pip279           CIRCULAR   5.620      0      0      0      1
pip280           CIRCULAR   4.800      0      0      0      1
pip281           CIRCULAR   3.000      0      0      0      1
pip282           CIRCULAR   3.750      0      0      0      1
pip283           CIRCULAR   2.100      0      0      0      1
pip284           CIRCULAR   5.100      0      0      0      1
pip285           CIRCULAR   5.000      0      0      0      1
pip286           CIRCULAR   2.700      0      0      0      1
pip287           CIRCULAR   13.716     0      0      0      1
pip288           CIRCULAR   4.900      0      0      0      1
pip289           CIRCULAR   4.900      0      0      0      1
pip290           CIRCULAR   4.900      0      0      0      1
pip291           CIRCULAR   2.100      0      0      0      1
pip292           CIRCULAR   4.900      0      0      0      1
pip293           CIRCULAR   4.900      0      0      0      1
pip294           CIRCULAR   5.000      0      0      0      1
pip295           CIRCULAR   4.300      0      0      0      1
pip296           CIRCULAR   4.350      0      0      0      1
pip297           CIRCULAR   13.716     0      0      0      1
pip298           CIRCULAR   1.575      0      0      0      1
pip299           CIRCULAR   4.600      0      0      0      1
pip300           CIRCULAR   4.600      0      0      0      1
OUT_LINK_OUT014  CIRCULAR   2.000      0      0      0      1
OUT_LINK_OUT001  CIRCULAR   2.000      0      0      0      1

[INFLOWS]
;;Node           Parameter  TimeSeries       Type    Mfactor  Sfactor  Baseline
POINT239         FLOW       Qin_POINT239     FLOW    1.0      1.0      0.0
POINT240         FLOW       Qin_POINT240     FLOW    1.0      1.0      0.0
POINT241         FLOW       Qin_POINT241     FLOW    1.0      1.0      0.0
POINT242         FLOW       Qin_POINT242     FLOW    1.0      1.0      0.0
POINT243         FLOW       Qin_POINT243     FLOW    1.0      1.0      0.0
POINT244         FLOW       Qin_POINT244     FLOW    1.0      1.0      0.0
POINT246         FLOW       Qin_POINT246     FLOW    1.0      1.0      0.0
POINT247         FLOW       Qin_POINT247     FLOW    1.0      1.0      0.0
POINT248         FLOW       Qin_POINT248     FLOW    1.0      1.0      0.0
POINT249         FLOW       Qin_POINT249     FLOW    1.0      1.0      0.0
POINT251         FLOW       Qin_POINT251     FLOW    1.0      1.0      0.0
POINT252         FLOW       Qin_POINT252     FLOW    1.0      1.0      0.0
POINT253         FLOW       Qin_POINT253     FLOW    1.0      1.0      0.0
POINT254         FLOW       Qin_POINT254     FLOW    1.0      1.0      0.0
POINT255         FLOW       Qin_POINT255     FLOW    1.0      1.0      0.0
POINT256         FLOW       Qin_POINT256     FLOW    1.0      1.0      0.0
POINT258         FLOW       Qin_POINT258     FLOW    1.0      1.0      0.0
POINT259         FLOW       Qin_POINT259     FLOW    1.0      1.0      0.0
POINT260         FLOW       Qin_POINT260     FLOW    1.0      1.0      0.0
POINT262         FLOW       Qin_POINT262     FLOW    1.0      1.0      0.0
POINT263         FLOW       Qin_POINT263     FLOW    1.0      1.0      0.0
POINT264         FLOW       Qin_POINT264     FLOW    1.0      1.0      0.0
POINT265         FLOW       Qin_POINT265     FLOW    1.0      1.0      0.0
POINT266         FLOW       Qin_POINT266     FLOW    1.0      1.0      0.0
POINT267         FLOW       Qin_POINT267     FLOW    1.0      1.0      0.0
POINT268         FLOW       Qin_POINT268     FLOW    1.0      1.0      0.0
POINT270         FLOW       Qin_POINT270     FLOW    1.0      1.0      0.0
POINT271         FLOW       Qin_POINT271     FLOW    1.0      1.0      0.0
POINT272         FLOW       Qin_POINT272     FLOW    1.0      1.0      0.0
POINT273         FLOW       Qin_POINT273     FLOW    1.0      1.0      0.0
POINT275         FLOW       Qin_POINT275     FLOW    1.0      1.0      0.0
POINT276         FLOW       Qin_POINT276     FLOW    1.0      1.0      0.0
POINT277         FLOW       Qin_POINT277     FLOW    1.0      1.0      0.0
POINT278         FLOW       Qin_POINT278     FLOW    1.0      1.0      0.0
POINT279         FLOW       Qin_POINT279     FLOW    1.0      1.0      0.0
POINT280         FLOW       Qin_POINT280     FLOW    1.0      1.0      0.0
POINT281         FLOW       Qin_POINT281     FLOW    1.0      1.0      0.0
POINT282         FLOW       Qin_POINT282     FLOW    1.0      1.0      0.0
POINT283         FLOW       Qin_POINT283     FLOW    1.0      1.0      0.0
POINT284         FLOW       Qin_POINT284     FLOW    1.0      1.0      0.0
POINT285         FLOW       Qin_POINT285     FLOW    1.0      1.0      0.0
POINT286         FLOW       Qin_POINT286     FLOW    1.0      1.0      0.0
POINT287         FLOW       Qin_POINT287     FLOW    1.0      1.0      0.0
POINT288         FLOW       Qin_POINT288     FLOW    1.0      1.0      0.0
POINT289         FLOW       Qin_POINT289     FLOW    1.0      1.0      0.0
POINT290         FLOW       Qin_POINT290     FLOW    1.0      1.0      0.0
POINT291         FLOW       Qin_POINT291     FLOW    1.0      1.0      0.0
POINT293         FLOW       Qin_POINT293     FLOW    1.0      1.0      0.0
POINT294         FLOW       Qin_POINT294     FLOW    1.0      1.0      0.0
POINT296         FLOW       Qin_POINT296     FLOW    1.0      1.0      0.0
POINT297         FLOW       Qin_POINT297     FLOW    1.0      1.0      0.0
POINT299         FLOW       Qin_POINT299     FLOW    1.0      1.0      0.0
POINT300         FLOW       Qin_POINT300     FLOW    1.0      1.0      0.0
POINT302         FLOW       Qin_POINT302     FLOW    1.0      1.0      0.0
POINT303         FLOW       Qin_POINT303     FLOW    1.0      1.0      0.0
POINT304         FLOW       Qin_POINT304     FLOW    1.0      1.0      0.0
POINT305         FLOW       Qin_POINT305     FLOW    1.0      1.0      0.0
POINT306         FLOW       Qin_POINT306     FLOW    1.0      1.0      0.0
POINT307         FLOW       Qin_POINT307     FLOW    1.0      1.0      0.0
POINT309         FLOW       Qin_POINT309     FLOW    1.0      1.0      0.0
POINT311         FLOW       Qin_POINT311     FLOW    1.0      1.0      0.0
POINT312         FLOW       Qin_POINT312     FLOW    1.0      1.0      0.0
POINT313         FLOW       Qin_POINT313     FLOW    1.0      1.0      0.0
POINT315         FLOW       Qin_POINT315     FLOW    1.0      1.0      0.0
POINT316         FLOW       Qin_POINT316     FLOW    1.0      1.0      0.0
POINT317         FLOW       Qin_POINT317     FLOW    1.0      1.0      0.0
POINT319         FLOW       Qin_POINT319     FLOW    1.0      1.0      0.0
POINT320         FLOW       Qin_POINT320     FLOW    1.0      1.0      0.0
POINT321         FLOW       Qin_POINT321     FLOW    1.0      1.0      0.0
POINT322         FLOW       Qin_POINT322     FLOW    1.0      1.0      0.0
POINT323         FLOW       Qin_POINT323     FLOW    1.0      1.0      0.0
POINT324         FLOW       Qin_POINT324     FLOW    1.0      1.0      0.0
POINT325         FLOW       Qin_POINT325     FLOW    1.0      1.0      0.0
POINT326         FLOW       Qin_POINT326     FLOW    1.0      1.0      0.0
POINT327         FLOW       Qin_POINT327     FLOW    1.0      1.0      0.0
POINT328         FLOW       Qin_POINT328     FLOW    1.0      1.0      0.0
POINT329         FLOW       Qin_POINT329     FLOW    1.0      1.0      0.0
POINT330         FLOW       Qin_POINT330     FLOW    1.0      1.0      0.0
POINT331         FLOW       Qin_POINT331     FLOW    1.0      1.0      0.0
POINT332         FLOW       Qin_POINT332     FLOW    1.0      1.0      0.0
POINT333         FLOW       Qin_POINT333     FLOW    1.0      1.0      0.0
POINT334         FLOW       Qin_POINT334     FLOW    1.0      1.0      0.0
POINT336         FLOW       Qin_POINT336     FLOW    1.0      1.0      0.0
POINT337         FLOW       Qin_POINT337     FLOW    1.0      1.0      0.0
POINT339         FLOW       Qin_POINT339     FLOW    1.0      1.0      0.0
POINT340         FLOW       Qin_POINT340     FLOW    1.0      1.0      0.0
POINT341         FLOW       Qin_POINT341     FLOW    1.0      1.0      0.0
POINT343         FLOW       Qin_POINT343     FLOW    1.0      1.0      0.0
POINT344         FLOW       Qin_POINT344     FLOW    1.0      1.0      0.0
POINT345         FLOW       Qin_POINT345     FLOW    1.0      1.0      0.0
POINT346         FLOW       Qin_POINT346     FLOW    1.0      1.0      0.0
POINT347         FLOW       Qin_POINT347     FLOW    1.0      1.0      0.0
POINT348         FLOW       Qin_POINT348     FLOW    1.0      1.0      0.0
POINT349         FLOW       Qin_POINT349     FLOW    1.0      1.0      0.0
POINT351         FLOW       Qin_POINT351     FLOW    1.0      1.0      0.0
POINT353         FLOW       Qin_POINT353     FLOW    1.0      1.0      0.0
POINT354         FLOW       Qin_POINT354     FLOW    1.0      1.0      0.0
POINT355         FLOW       Qin_POINT355     FLOW    1.0      1.0      0.0
POINT356         FLOW       Qin_POINT356     FLOW    1.0      1.0      0.0
POINT357         FLOW       Qin_POINT357     FLOW    1.0      1.0      0.0
POINT358         FLOW       Qin_POINT358     FLOW    1.0      1.0      0.0
POINT359         FLOW       Qin_POINT359     FLOW    1.0      1.0      0.0
POINT360         FLOW       Qin_POINT360     FLOW    1.0      1.0      0.0
POINT361         FLOW       Qin_POINT361     FLOW    1.0      1.0      0.0
POINT363         FLOW       Qin_POINT363     FLOW    1.0      1.0      0.0
POINT365         FLOW       Qin_POINT365     FLOW    1.0      1.0      0.0
POINT367         FLOW       Qin_POINT367     FLOW    1.0      1.0      0.0
POINT368         FLOW       Qin_POINT368     FLOW    1.0      1.0      0.0
POINT369         FLOW       Qin_POINT369     FLOW    1.0      1.0      0.0
POINT370         FLOW       Qin_POINT370     FLOW    1.0      1.0      0.0
POINT371         FLOW       Qin_POINT371     FLOW    1.0      1.0      0.0
POINT373         FLOW       Qin_POINT373     FLOW    1.0      1.0      0.0
POINT374         FLOW       Qin_POINT374     FLOW    1.0      1.0      0.0
POINT375         FLOW       Qin_POINT375     FLOW    1.0      1.0      0.0
POINT376         FLOW       Qin_POINT376     FLOW    1.0      1.0      0.0
POINT377         FLOW       Qin_POINT377     FLOW    1.0      1.0      0.0
POINT378         FLOW       Qin_POINT378     FLOW    1.0      1.0      0.0
POINT379         FLOW       Qin_POINT379     FLOW    1.0      1.0      0.0
POINT380         FLOW       Qin_POINT380     FLOW    1.0      1.0      0.0
POINT381         FLOW       Qin_POINT381     FLOW    1.0      1.0      0.0
POINT382         FLOW       Qin_POINT382     FLOW    1.0      1.0      0.0
POINT383         FLOW       Qin_POINT383     FLOW    1.0      1.0      0.0
POINT385         FLOW       Qin_POINT385     FLOW    1.0      1.0      0.0
POINT387         FLOW       Qin_POINT387     FLOW    1.0      1.0      0.0
POINT388         FLOW       Qin_POINT388     FLOW    1.0      1.0      0.0
POINT505         FLOW       Qin_POINT505     FLOW    1.0      1.0      0.0
OUT014           FLOW       Qin_OUT014       FLOW    1.0      1.0      0.0
OUT001           FLOW       Qin_OUT001       FLOW    1.0      1.0      0.0

[TIMESERIES]
;;Name           Date        Time      Value
Qin_POINT239     01/01/2026  00:00:00  0.00000000
Qin_POINT239     01/01/2026  00:05:00  0.00023698
Qin_POINT239     01/01/2026  00:10:00  0.00061615
Qin_POINT239     01/01/2026  00:15:00  0.00127970
Qin_POINT239     01/01/2026  00:20:00  0.00224225
Qin_POINT239     01/01/2026  00:25:00  0.00472109
Qin_POINT239     01/01/2026  00:30:00  0.00782904
Qin_POINT239     01/01/2026  00:35:00  0.01175371
Qin_POINT239     01/01/2026  00:40:00  0.01564474
Qin_POINT239     01/01/2026  00:45:00  0.01296134
Qin_POINT239     01/01/2026  00:50:00  0.00922508
Qin_POINT239     01/01/2026  00:55:00  0.00616419
Qin_POINT239     01/01/2026  01:00:00  0.00412692
Qin_POINT239     01/01/2026  01:05:00  0.00277123
Qin_POINT239     01/01/2026  01:10:00  0.00175439
Qin_POINT239     01/01/2026  01:15:00  0.00073319
Qin_POINT239     01/01/2026  01:20:00  0.00023698
Qin_POINT239     01/01/2026  01:25:00  0.00004740
Qin_POINT239     01/01/2026  01:30:00  0.00000000
Qin_POINT239     01/01/2026  01:35:00  0.00000000
Qin_POINT239     01/01/2026  01:40:00  0.00000000
Qin_POINT239     01/01/2026  01:45:00  0.00000000
Qin_POINT239     01/01/2026  01:50:00  0.00000000
Qin_POINT239     01/01/2026  01:55:00  0.00000000
Qin_POINT239     01/01/2026  02:00:00  0.00000000
Qin_POINT239     01/01/2026  02:05:00  0.00000000
Qin_POINT239     01/01/2026  02:10:00  0.00000000
Qin_POINT239     01/01/2026  02:15:00  0.00000000
Qin_POINT239     01/01/2026  02:20:00  0.00000000
Qin_POINT239     01/01/2026  02:25:00  0.00000000
Qin_POINT239     01/01/2026  02:30:00  0.00000000
Qin_POINT239     01/01/2026  02:35:00  0.00000000
Qin_POINT239     01/01/2026  02:40:00  0.00000000
Qin_POINT239     01/01/2026  02:45:00  0.00000000
Qin_POINT239     01/01/2026  02:50:00  0.00000000
Qin_POINT239     01/01/2026  02:55:00  0.00000000
Qin_POINT239     01/01/2026  03:00:00  0.00000000
Qin_POINT240     01/01/2026  00:00:00  0.00000000
Qin_POINT240     01/01/2026  00:05:00  0.00023698
Qin_POINT240     01/01/2026  00:10:00  0.00061615
Qin_POINT240     01/01/2026  00:15:00  0.00127970
Qin_POINT240     01/01/2026  00:20:00  0.00224225
Qin_POINT240     01/01/2026  00:25:00  0.00472109
Qin_POINT240     01/01/2026  00:30:00  0.00782904
Qin_POINT240     01/01/2026  00:35:00  0.01175371
Qin_POINT240     01/01/2026  00:40:00  0.01564474
Qin_POINT240     01/01/2026  00:45:00  0.01296134
Qin_POINT240     01/01/2026  00:50:00  0.00922508
Qin_POINT240     01/01/2026  00:55:00  0.00616419
Qin_POINT240     01/01/2026  01:00:00  0.00412692
Qin_POINT240     01/01/2026  01:05:00  0.00277123
Qin_POINT240     01/01/2026  01:10:00  0.00175439
Qin_POINT240     01/01/2026  01:15:00  0.00073319
Qin_POINT240     01/01/2026  01:20:00  0.00023698
Qin_POINT240     01/01/2026  01:25:00  0.00004740
Qin_POINT240     01/01/2026  01:30:00  0.00000000
Qin_POINT240     01/01/2026  01:35:00  0.00000000
Qin_POINT240     01/01/2026  01:40:00  0.00000000
Qin_POINT240     01/01/2026  01:45:00  0.00000000
Qin_POINT240     01/01/2026  01:50:00  0.00000000
Qin_POINT240     01/01/2026  01:55:00  0.00000000
Qin_POINT240     01/01/2026  02:00:00  0.00000000
Qin_POINT240     01/01/2026  02:05:00  0.00000000
Qin_POINT240     01/01/2026  02:10:00  0.00000000
Qin_POINT240     01/01/2026  02:15:00  0.00000000
Qin_POINT240     01/01/2026  02:20:00  0.00000000
Qin_POINT240     01/01/2026  02:25:00  0.00000000
Qin_POINT240     01/01/2026  02:30:00  0.00000000
Qin_POINT240     01/01/2026  02:35:00  0.00000000
Qin_POINT240     01/01/2026  02:40:00  0.00000000
Qin_POINT240     01/01/2026  02:45:00  0.00000000
Qin_POINT240     01/01/2026  02:50:00  0.00000000
Qin_POINT240     01/01/2026  02:55:00  0.00000000
Qin_POINT240     01/01/2026  03:00:00  0.00000000
Qin_POINT241     01/01/2026  00:00:00  0.00000000
Qin_POINT241     01/01/2026  00:05:00  0.00023698
Qin_POINT241     01/01/2026  00:10:00  0.00061615
Qin_POINT241     01/01/2026  00:15:00  0.00127970
Qin_POINT241     01/01/2026  00:20:00  0.00224225
Qin_POINT241     01/01/2026  00:25:00  0.00472109
Qin_POINT241     01/01/2026  00:30:00  0.00782904
Qin_POINT241     01/01/2026  00:35:00  0.01175371
Qin_POINT241     01/01/2026  00:40:00  0.01564474
Qin_POINT241     01/01/2026  00:45:00  0.01296134
Qin_POINT241     01/01/2026  00:50:00  0.00922508
Qin_POINT241     01/01/2026  00:55:00  0.00616419
Qin_POINT241     01/01/2026  01:00:00  0.00412692
Qin_POINT241     01/01/2026  01:05:00  0.00277123
Qin_POINT241     01/01/2026  01:10:00  0.00175439
Qin_POINT241     01/01/2026  01:15:00  0.00073319
Qin_POINT241     01/01/2026  01:20:00  0.00023698
Qin_POINT241     01/01/2026  01:25:00  0.00004740
Qin_POINT241     01/01/2026  01:30:00  0.00000000
Qin_POINT241     01/01/2026  01:35:00  0.00000000
Qin_POINT241     01/01/2026  01:40:00  0.00000000
Qin_POINT241     01/01/2026  01:45:00  0.00000000
Qin_POINT241     01/01/2026  01:50:00  0.00000000
Qin_POINT241     01/01/2026  01:55:00  0.00000000
Qin_POINT241     01/01/2026  02:00:00  0.00000000
Qin_POINT241     01/01/2026  02:05:00  0.00000000
Qin_POINT241     01/01/2026  02:10:00  0.00000000
Qin_POINT241     01/01/2026  02:15:00  0.00000000
Qin_POINT241     01/01/2026  02:20:00  0.00000000
Qin_POINT241     01/01/2026  02:25:00  0.00000000
Qin_POINT241     01/01/2026  02:30:00  0.00000000
Qin_POINT241     01/01/2026  02:35:00  0.00000000
Qin_POINT241     01/01/2026  02:40:00  0.00000000
Qin_POINT241     01/01/2026  02:45:00  0.00000000
Qin_POINT241     01/01/2026  02:50:00  0.00000000
Qin_POINT241     01/01/2026  02:55:00  0.00000000
Qin_POINT241     01/01/2026  03:00:00  0.00000000
Qin_POINT242     01/01/2026  00:00:00  0.00000000
Qin_POINT242     01/01/2026  00:05:00  0.00023698
Qin_POINT242     01/01/2026  00:10:00  0.00061615
Qin_POINT242     01/01/2026  00:15:00  0.00127970
Qin_POINT242     01/01/2026  00:20:00  0.00224225
Qin_POINT242     01/01/2026  00:25:00  0.00472109
Qin_POINT242     01/01/2026  00:30:00  0.00782904
Qin_POINT242     01/01/2026  00:35:00  0.01175371
Qin_POINT242     01/01/2026  00:40:00  0.01564474
Qin_POINT242     01/01/2026  00:45:00  0.01296134
Qin_POINT242     01/01/2026  00:50:00  0.00922508
Qin_POINT242     01/01/2026  00:55:00  0.00616419
Qin_POINT242     01/01/2026  01:00:00  0.00412692
Qin_POINT242     01/01/2026  01:05:00  0.00277123
Qin_POINT242     01/01/2026  01:10:00  0.00175439
Qin_POINT242     01/01/2026  01:15:00  0.00073319
Qin_POINT242     01/01/2026  01:20:00  0.00023698
Qin_POINT242     01/01/2026  01:25:00  0.00004740
Qin_POINT242     01/01/2026  01:30:00  0.00000000
Qin_POINT242     01/01/2026  01:35:00  0.00000000
Qin_POINT242     01/01/2026  01:40:00  0.00000000
Qin_POINT242     01/01/2026  01:45:00  0.00000000
Qin_POINT242     01/01/2026  01:50:00  0.00000000
Qin_POINT242     01/01/2026  01:55:00  0.00000000
Qin_POINT242     01/01/2026  02:00:00  0.00000000
Qin_POINT242     01/01/2026  02:05:00  0.00000000
Qin_POINT242     01/01/2026  02:10:00  0.00000000
Qin_POINT242     01/01/2026  02:15:00  0.00000000
Qin_POINT242     01/01/2026  02:20:00  0.00000000
Qin_POINT242     01/01/2026  02:25:00  0.00000000
Qin_POINT242     01/01/2026  02:30:00  0.00000000
Qin_POINT242     01/01/2026  02:35:00  0.00000000
Qin_POINT242     01/01/2026  02:40:00  0.00000000
Qin_POINT242     01/01/2026  02:45:00  0.00000000
Qin_POINT242     01/01/2026  02:50:00  0.00000000
Qin_POINT242     01/01/2026  02:55:00  0.00000000
Qin_POINT242     01/01/2026  03:00:00  0.00000000
Qin_POINT243     01/01/2026  00:00:00  0.00000000
Qin_POINT243     01/01/2026  00:05:00  0.00023698
Qin_POINT243     01/01/2026  00:10:00  0.00061615
Qin_POINT243     01/01/2026  00:15:00  0.00127970
Qin_POINT243     01/01/2026  00:20:00  0.00224225
Qin_POINT243     01/01/2026  00:25:00  0.00472109
Qin_POINT243     01/01/2026  00:30:00  0.00782904
Qin_POINT243     01/01/2026  00:35:00  0.01175371
Qin_POINT243     01/01/2026  00:40:00  0.01564474
Qin_POINT243     01/01/2026  00:45:00  0.01296134
Qin_POINT243     01/01/2026  00:50:00  0.00922508
Qin_POINT243     01/01/2026  00:55:00  0.00616419
Qin_POINT243     01/01/2026  01:00:00  0.00412692
Qin_POINT243     01/01/2026  01:05:00  0.00277123
Qin_POINT243     01/01/2026  01:10:00  0.00175439
Qin_POINT243     01/01/2026  01:15:00  0.00073319
Qin_POINT243     01/01/2026  01:20:00  0.00023698
Qin_POINT243     01/01/2026  01:25:00  0.00004740
Qin_POINT243     01/01/2026  01:30:00  0.00000000
Qin_POINT243     01/01/2026  01:35:00  0.00000000
Qin_POINT243     01/01/2026  01:40:00  0.00000000
Qin_POINT243     01/01/2026  01:45:00  0.00000000
Qin_POINT243     01/01/2026  01:50:00  0.00000000
Qin_POINT243     01/01/2026  01:55:00  0.00000000
Qin_POINT243     01/01/2026  02:00:00  0.00000000
Qin_POINT243     01/01/2026  02:05:00  0.00000000
Qin_POINT243     01/01/2026  02:10:00  0.00000000
Qin_POINT243     01/01/2026  02:15:00  0.00000000
Qin_POINT243     01/01/2026  02:20:00  0.00000000
Qin_POINT243     01/01/2026  02:25:00  0.00000000
Qin_POINT243     01/01/2026  02:30:00  0.00000000
Qin_POINT243     01/01/2026  02:35:00  0.00000000
Qin_POINT243     01/01/2026  02:40:00  0.00000000
Qin_POINT243     01/01/2026  02:45:00  0.00000000
Qin_POINT243     01/01/2026  02:50:00  0.00000000
Qin_POINT243     01/01/2026  02:55:00  0.00000000
Qin_POINT243     01/01/2026  03:00:00  0.00000000
Qin_POINT244     01/01/2026  00:00:00  0.00000000
Qin_POINT244     01/01/2026  00:05:00  0.00023698
Qin_POINT244     01/01/2026  00:10:00  0.00061615
Qin_POINT244     01/01/2026  00:15:00  0.00127970
Qin_POINT244     01/01/2026  00:20:00  0.00224225
Qin_POINT244     01/01/2026  00:25:00  0.00472109
Qin_POINT244     01/01/2026  00:30:00  0.00782904
Qin_POINT244     01/01/2026  00:35:00  0.01175371
Qin_POINT244     01/01/2026  00:40:00  0.01564474
Qin_POINT244     01/01/2026  00:45:00  0.01296134
Qin_POINT244     01/01/2026  00:50:00  0.00922508
Qin_POINT244     01/01/2026  00:55:00  0.00616419
Qin_POINT244     01/01/2026  01:00:00  0.00412692
Qin_POINT244     01/01/2026  01:05:00  0.00277123
Qin_POINT244     01/01/2026  01:10:00  0.00175439
Qin_POINT244     01/01/2026  01:15:00  0.00073319
Qin_POINT244     01/01/2026  01:20:00  0.00023698
Qin_POINT244     01/01/2026  01:25:00  0.00004740
Qin_POINT244     01/01/2026  01:30:00  0.00000000
Qin_POINT244     01/01/2026  01:35:00  0.00000000
Qin_POINT244     01/01/2026  01:40:00  0.00000000
Qin_POINT244     01/01/2026  01:45:00  0.00000000
Qin_POINT244     01/01/2026  01:50:00  0.00000000
Qin_POINT244     01/01/2026  01:55:00  0.00000000
Qin_POINT244     01/01/2026  02:00:00  0.00000000
Qin_POINT244     01/01/2026  02:05:00  0.00000000
Qin_POINT244     01/01/2026  02:10:00  0.00000000
Qin_POINT244     01/01/2026  02:15:00  0.00000000
Qin_POINT244     01/01/2026  02:20:00  0.00000000
Qin_POINT244     01/01/2026  02:25:00  0.00000000
Qin_POINT244     01/01/2026  02:30:00  0.00000000
Qin_POINT244     01/01/2026  02:35:00  0.00000000
Qin_POINT244     01/01/2026  02:40:00  0.00000000
Qin_POINT244     01/01/2026  02:45:00  0.00000000
Qin_POINT244     01/01/2026  02:50:00  0.00000000
Qin_POINT244     01/01/2026  02:55:00  0.00000000
Qin_POINT244     01/01/2026  03:00:00  0.00000000
Qin_POINT246     01/01/2026  00:00:00  0.00000000
Qin_POINT246     01/01/2026  00:05:00  0.00023698
Qin_POINT246     01/01/2026  00:10:00  0.00061615
Qin_POINT246     01/01/2026  00:15:00  0.00127970
Qin_POINT246     01/01/2026  00:20:00  0.00224225
Qin_POINT246     01/01/2026  00:25:00  0.00472109
Qin_POINT246     01/01/2026  00:30:00  0.00782904
Qin_POINT246     01/01/2026  00:35:00  0.01175371
Qin_POINT246     01/01/2026  00:40:00  0.01564474
Qin_POINT246     01/01/2026  00:45:00  0.01296134
Qin_POINT246     01/01/2026  00:50:00  0.00922508
Qin_POINT246     01/01/2026  00:55:00  0.00616419
Qin_POINT246     01/01/2026  01:00:00  0.00412692
Qin_POINT246     01/01/2026  01:05:00  0.00277123
Qin_POINT246     01/01/2026  01:10:00  0.00175439
Qin_POINT246     01/01/2026  01:15:00  0.00073319
Qin_POINT246     01/01/2026  01:20:00  0.00023698
Qin_POINT246     01/01/2026  01:25:00  0.00004740
Qin_POINT246     01/01/2026  01:30:00  0.00000000
Qin_POINT246     01/01/2026  01:35:00  0.00000000
Qin_POINT246     01/01/2026  01:40:00  0.00000000
Qin_POINT246     01/01/2026  01:45:00  0.00000000
Qin_POINT246     01/01/2026  01:50:00  0.00000000
Qin_POINT246     01/01/2026  01:55:00  0.00000000
Qin_POINT246     01/01/2026  02:00:00  0.00000000
Qin_POINT246     01/01/2026  02:05:00  0.00000000
Qin_POINT246     01/01/2026  02:10:00  0.00000000
Qin_POINT246     01/01/2026  02:15:00  0.00000000
Qin_POINT246     01/01/2026  02:20:00  0.00000000
Qin_POINT246     01/01/2026  02:25:00  0.00000000
Qin_POINT246     01/01/2026  02:30:00  0.00000000
Qin_POINT246     01/01/2026  02:35:00  0.00000000
Qin_POINT246     01/01/2026  02:40:00  0.00000000
Qin_POINT246     01/01/2026  02:45:00  0.00000000
Qin_POINT246     01/01/2026  02:50:00  0.00000000
Qin_POINT246     01/01/2026  02:55:00  0.00000000
Qin_POINT246     01/01/2026  03:00:00  0.00000000
Qin_POINT247     01/01/2026  00:00:00  0.00000000
Qin_POINT247     01/01/2026  00:05:00  0.00023698
Qin_POINT247     01/01/2026  00:10:00  0.00061615
Qin_POINT247     01/01/2026  00:15:00  0.00127970
Qin_POINT247     01/01/2026  00:20:00  0.00224225
Qin_POINT247     01/01/2026  00:25:00  0.00472109
Qin_POINT247     01/01/2026  00:30:00  0.00782904
Qin_POINT247     01/01/2026  00:35:00  0.01175371
Qin_POINT247     01/01/2026  00:40:00  0.01564474
Qin_POINT247     01/01/2026  00:45:00  0.01296134
Qin_POINT247     01/01/2026  00:50:00  0.00922508
Qin_POINT247     01/01/2026  00:55:00  0.00616419
Qin_POINT247     01/01/2026  01:00:00  0.00412692
Qin_POINT247     01/01/2026  01:05:00  0.00277123
Qin_POINT247     01/01/2026  01:10:00  0.00175439
Qin_POINT247     01/01/2026  01:15:00  0.00073319
Qin_POINT247     01/01/2026  01:20:00  0.00023698
Qin_POINT247     01/01/2026  01:25:00  0.00004740
Qin_POINT247     01/01/2026  01:30:00  0.00000000
Qin_POINT247     01/01/2026  01:35:00  0.00000000
Qin_POINT247     01/01/2026  01:40:00  0.00000000
Qin_POINT247     01/01/2026  01:45:00  0.00000000
Qin_POINT247     01/01/2026  01:50:00  0.00000000
Qin_POINT247     01/01/2026  01:55:00  0.00000000
Qin_POINT247     01/01/2026  02:00:00  0.00000000
Qin_POINT247     01/01/2026  02:05:00  0.00000000
Qin_POINT247     01/01/2026  02:10:00  0.00000000
Qin_POINT247     01/01/2026  02:15:00  0.00000000
Qin_POINT247     01/01/2026  02:20:00  0.00000000
Qin_POINT247     01/01/2026  02:25:00  0.00000000
Qin_POINT247     01/01/2026  02:30:00  0.00000000
Qin_POINT247     01/01/2026  02:35:00  0.00000000
Qin_POINT247     01/01/2026  02:40:00  0.00000000
Qin_POINT247     01/01/2026  02:45:00  0.00000000
Qin_POINT247     01/01/2026  02:50:00  0.00000000
Qin_POINT247     01/01/2026  02:55:00  0.00000000
Qin_POINT247     01/01/2026  03:00:00  0.00000000
Qin_POINT248     01/01/2026  00:00:00  0.00000000
Qin_POINT248     01/01/2026  00:05:00  0.00023698
Qin_POINT248     01/01/2026  00:10:00  0.00061615
Qin_POINT248     01/01/2026  00:15:00  0.00127970
Qin_POINT248     01/01/2026  00:20:00  0.00224225
Qin_POINT248     01/01/2026  00:25:00  0.00472109
Qin_POINT248     01/01/2026  00:30:00  0.00782904
Qin_POINT248     01/01/2026  00:35:00  0.01175371
Qin_POINT248     01/01/2026  00:40:00  0.01564474
Qin_POINT248     01/01/2026  00:45:00  0.01296134
Qin_POINT248     01/01/2026  00:50:00  0.00922508
Qin_POINT248     01/01/2026  00:55:00  0.00616419
Qin_POINT248     01/01/2026  01:00:00  0.00412692
Qin_POINT248     01/01/2026  01:05:00  0.00277123
Qin_POINT248     01/01/2026  01:10:00  0.00175439
Qin_POINT248     01/01/2026  01:15:00  0.00073319
Qin_POINT248     01/01/2026  01:20:00  0.00023698
Qin_POINT248     01/01/2026  01:25:00  0.00004740
Qin_POINT248     01/01/2026  01:30:00  0.00000000
Qin_POINT248     01/01/2026  01:35:00  0.00000000
Qin_POINT248     01/01/2026  01:40:00  0.00000000
Qin_POINT248     01/01/2026  01:45:00  0.00000000
Qin_POINT248     01/01/2026  01:50:00  0.00000000
Qin_POINT248     01/01/2026  01:55:00  0.00000000
Qin_POINT248     01/01/2026  02:00:00  0.00000000
Qin_POINT248     01/01/2026  02:05:00  0.00000000
Qin_POINT248     01/01/2026  02:10:00  0.00000000
Qin_POINT248     01/01/2026  02:15:00  0.00000000
Qin_POINT248     01/01/2026  02:20:00  0.00000000
Qin_POINT248     01/01/2026  02:25:00  0.00000000
Qin_POINT248     01/01/2026  02:30:00  0.00000000
Qin_POINT248     01/01/2026  02:35:00  0.00000000
Qin_POINT248     01/01/2026  02:40:00  0.00000000
Qin_POINT248     01/01/2026  02:45:00  0.00000000
Qin_POINT248     01/01/2026  02:50:00  0.00000000
Qin_POINT248     01/01/2026  02:55:00  0.00000000
Qin_POINT248     01/01/2026  03:00:00  0.00000000
Qin_POINT249     01/01/2026  00:00:00  0.00000000
Qin_POINT249     01/01/2026  00:05:00  0.00023698
Qin_POINT249     01/01/2026  00:10:00  0.00061615
Qin_POINT249     01/01/2026  00:15:00  0.00127970
Qin_POINT249     01/01/2026  00:20:00  0.00224225
Qin_POINT249     01/01/2026  00:25:00  0.00472109
Qin_POINT249     01/01/2026  00:30:00  0.00782904
Qin_POINT249     01/01/2026  00:35:00  0.01175371
Qin_POINT249     01/01/2026  00:40:00  0.01564474
Qin_POINT249     01/01/2026  00:45:00  0.01296134
Qin_POINT249     01/01/2026  00:50:00  0.00922508
Qin_POINT249     01/01/2026  00:55:00  0.00616419
Qin_POINT249     01/01/2026  01:00:00  0.00412692
Qin_POINT249     01/01/2026  01:05:00  0.00277123
Qin_POINT249     01/01/2026  01:10:00  0.00175439
Qin_POINT249     01/01/2026  01:15:00  0.00073319
Qin_POINT249     01/01/2026  01:20:00  0.00023698
Qin_POINT249     01/01/2026  01:25:00  0.00004740
Qin_POINT249     01/01/2026  01:30:00  0.00000000
Qin_POINT249     01/01/2026  01:35:00  0.00000000
Qin_POINT249     01/01/2026  01:40:00  0.00000000
Qin_POINT249     01/01/2026  01:45:00  0.00000000
Qin_POINT249     01/01/2026  01:50:00  0.00000000
Qin_POINT249     01/01/2026  01:55:00  0.00000000
Qin_POINT249     01/01/2026  02:00:00  0.00000000
Qin_POINT249     01/01/2026  02:05:00  0.00000000
Qin_POINT249     01/01/2026  02:10:00  0.00000000
Qin_POINT249     01/01/2026  02:15:00  0.00000000
Qin_POINT249     01/01/2026  02:20:00  0.00000000
Qin_POINT249     01/01/2026  02:25:00  0.00000000
Qin_POINT249     01/01/2026  02:30:00  0.00000000
Qin_POINT249     01/01/2026  02:35:00  0.00000000
Qin_POINT249     01/01/2026  02:40:00  0.00000000
Qin_POINT249     01/01/2026  02:45:00  0.00000000
Qin_POINT249     01/01/2026  02:50:00  0.00000000
Qin_POINT249     01/01/2026  02:55:00  0.00000000
Qin_POINT249     01/01/2026  03:00:00  0.00000000
Qin_POINT251     01/01/2026  00:00:00  0.00000000
Qin_POINT251     01/01/2026  00:05:00  0.00023698
Qin_POINT251     01/01/2026  00:10:00  0.00061615
Qin_POINT251     01/01/2026  00:15:00  0.00127970
Qin_POINT251     01/01/2026  00:20:00  0.00224225
Qin_POINT251     01/01/2026  00:25:00  0.00472109
Qin_POINT251     01/01/2026  00:30:00  0.00782904
Qin_POINT251     01/01/2026  00:35:00  0.01175371
Qin_POINT251     01/01/2026  00:40:00  0.01564474
Qin_POINT251     01/01/2026  00:45:00  0.01296134
Qin_POINT251     01/01/2026  00:50:00  0.00922508
Qin_POINT251     01/01/2026  00:55:00  0.00616419
Qin_POINT251     01/01/2026  01:00:00  0.00412692
Qin_POINT251     01/01/2026  01:05:00  0.00277123
Qin_POINT251     01/01/2026  01:10:00  0.00175439
Qin_POINT251     01/01/2026  01:15:00  0.00073319
Qin_POINT251     01/01/2026  01:20:00  0.00023698
Qin_POINT251     01/01/2026  01:25:00  0.00004740
Qin_POINT251     01/01/2026  01:30:00  0.00000000
Qin_POINT251     01/01/2026  01:35:00  0.00000000
Qin_POINT251     01/01/2026  01:40:00  0.00000000
Qin_POINT251     01/01/2026  01:45:00  0.00000000
Qin_POINT251     01/01/2026  01:50:00  0.00000000
Qin_POINT251     01/01/2026  01:55:00  0.00000000
Qin_POINT251     01/01/2026  02:00:00  0.00000000
Qin_POINT251     01/01/2026  02:05:00  0.00000000
Qin_POINT251     01/01/2026  02:10:00  0.00000000
Qin_POINT251     01/01/2026  02:15:00  0.00000000
Qin_POINT251     01/01/2026  02:20:00  0.00000000
Qin_POINT251     01/01/2026  02:25:00  0.00000000
Qin_POINT251     01/01/2026  02:30:00  0.00000000
Qin_POINT251     01/01/2026  02:35:00  0.00000000
Qin_POINT251     01/01/2026  02:40:00  0.00000000
Qin_POINT251     01/01/2026  02:45:00  0.00000000
Qin_POINT251     01/01/2026  02:50:00  0.00000000
Qin_POINT251     01/01/2026  02:55:00  0.00000000
Qin_POINT251     01/01/2026  03:00:00  0.00000000
Qin_POINT252     01/01/2026  00:00:00  0.00000000
Qin_POINT252     01/01/2026  00:05:00  0.00023698
Qin_POINT252     01/01/2026  00:10:00  0.00061615
Qin_POINT252     01/01/2026  00:15:00  0.00127970
Qin_POINT252     01/01/2026  00:20:00  0.00224225
Qin_POINT252     01/01/2026  00:25:00  0.00472109
Qin_POINT252     01/01/2026  00:30:00  0.00782904
Qin_POINT252     01/01/2026  00:35:00  0.01175371
Qin_POINT252     01/01/2026  00:40:00  0.01564474
Qin_POINT252     01/01/2026  00:45:00  0.01296134
Qin_POINT252     01/01/2026  00:50:00  0.00922508
Qin_POINT252     01/01/2026  00:55:00  0.00616419
Qin_POINT252     01/01/2026  01:00:00  0.00412692
Qin_POINT252     01/01/2026  01:05:00  0.00277123
Qin_POINT252     01/01/2026  01:10:00  0.00175439
Qin_POINT252     01/01/2026  01:15:00  0.00073319
Qin_POINT252     01/01/2026  01:20:00  0.00023698
Qin_POINT252     01/01/2026  01:25:00  0.00004740
Qin_POINT252     01/01/2026  01:30:00  0.00000000
Qin_POINT252     01/01/2026  01:35:00  0.00000000
Qin_POINT252     01/01/2026  01:40:00  0.00000000
Qin_POINT252     01/01/2026  01:45:00  0.00000000
Qin_POINT252     01/01/2026  01:50:00  0.00000000
Qin_POINT252     01/01/2026  01:55:00  0.00000000
Qin_POINT252     01/01/2026  02:00:00  0.00000000
Qin_POINT252     01/01/2026  02:05:00  0.00000000
Qin_POINT252     01/01/2026  02:10:00  0.00000000
Qin_POINT252     01/01/2026  02:15:00  0.00000000
Qin_POINT252     01/01/2026  02:20:00  0.00000000
Qin_POINT252     01/01/2026  02:25:00  0.00000000
Qin_POINT252     01/01/2026  02:30:00  0.00000000
Qin_POINT252     01/01/2026  02:35:00  0.00000000
Qin_POINT252     01/01/2026  02:40:00  0.00000000
Qin_POINT252     01/01/2026  02:45:00  0.00000000
Qin_POINT252     01/01/2026  02:50:00  0.00000000
Qin_POINT252     01/01/2026  02:55:00  0.00000000
Qin_POINT252     01/01/2026  03:00:00  0.00000000
Qin_POINT253     01/01/2026  00:00:00  0.00000000
Qin_POINT253     01/01/2026  00:05:00  0.00023698
Qin_POINT253     01/01/2026  00:10:00  0.00061615
Qin_POINT253     01/01/2026  00:15:00  0.00127970
Qin_POINT253     01/01/2026  00:20:00  0.00224225
Qin_POINT253     01/01/2026  00:25:00  0.00472109
Qin_POINT253     01/01/2026  00:30:00  0.00782904
Qin_POINT253     01/01/2026  00:35:00  0.01175371
Qin_POINT253     01/01/2026  00:40:00  0.01564474
Qin_POINT253     01/01/2026  00:45:00  0.01296134
Qin_POINT253     01/01/2026  00:50:00  0.00922508
Qin_POINT253     01/01/2026  00:55:00  0.00616419
Qin_POINT253     01/01/2026  01:00:00  0.00412692
Qin_POINT253     01/01/2026  01:05:00  0.00277123
Qin_POINT253     01/01/2026  01:10:00  0.00175439
Qin_POINT253     01/01/2026  01:15:00  0.00073319
Qin_POINT253     01/01/2026  01:20:00  0.00023698
Qin_POINT253     01/01/2026  01:25:00  0.00004740
Qin_POINT253     01/01/2026  01:30:00  0.00000000
Qin_POINT253     01/01/2026  01:35:00  0.00000000
Qin_POINT253     01/01/2026  01:40:00  0.00000000
Qin_POINT253     01/01/2026  01:45:00  0.00000000
Qin_POINT253     01/01/2026  01:50:00  0.00000000
Qin_POINT253     01/01/2026  01:55:00  0.00000000
Qin_POINT253     01/01/2026  02:00:00  0.00000000
Qin_POINT253     01/01/2026  02:05:00  0.00000000
Qin_POINT253     01/01/2026  02:10:00  0.00000000
Qin_POINT253     01/01/2026  02:15:00  0.00000000
Qin_POINT253     01/01/2026  02:20:00  0.00000000
Qin_POINT253     01/01/2026  02:25:00  0.00000000
Qin_POINT253     01/01/2026  02:30:00  0.00000000
Qin_POINT253     01/01/2026  02:35:00  0.00000000
Qin_POINT253     01/01/2026  02:40:00  0.00000000
Qin_POINT253     01/01/2026  02:45:00  0.00000000
Qin_POINT253     01/01/2026  02:50:00  0.00000000
Qin_POINT253     01/01/2026  02:55:00  0.00000000
Qin_POINT253     01/01/2026  03:00:00  0.00000000
Qin_POINT254     01/01/2026  00:00:00  0.00000000
Qin_POINT254     01/01/2026  00:05:00  0.00023698
Qin_POINT254     01/01/2026  00:10:00  0.00061615
Qin_POINT254     01/01/2026  00:15:00  0.00127970
Qin_POINT254     01/01/2026  00:20:00  0.00224225
Qin_POINT254     01/01/2026  00:25:00  0.00472109
Qin_POINT254     01/01/2026  00:30:00  0.00782904
Qin_POINT254     01/01/2026  00:35:00  0.01175371
Qin_POINT254     01/01/2026  00:40:00  0.01564474
Qin_POINT254     01/01/2026  00:45:00  0.01296134
Qin_POINT254     01/01/2026  00:50:00  0.00922508
Qin_POINT254     01/01/2026  00:55:00  0.00616419
Qin_POINT254     01/01/2026  01:00:00  0.00412692
Qin_POINT254     01/01/2026  01:05:00  0.00277123
Qin_POINT254     01/01/2026  01:10:00  0.00175439
Qin_POINT254     01/01/2026  01:15:00  0.00073319
Qin_POINT254     01/01/2026  01:20:00  0.00023698
Qin_POINT254     01/01/2026  01:25:00  0.00004740
Qin_POINT254     01/01/2026  01:30:00  0.00000000
Qin_POINT254     01/01/2026  01:35:00  0.00000000
Qin_POINT254     01/01/2026  01:40:00  0.00000000
Qin_POINT254     01/01/2026  01:45:00  0.00000000
Qin_POINT254     01/01/2026  01:50:00  0.00000000
Qin_POINT254     01/01/2026  01:55:00  0.00000000
Qin_POINT254     01/01/2026  02:00:00  0.00000000
Qin_POINT254     01/01/2026  02:05:00  0.00000000
Qin_POINT254     01/01/2026  02:10:00  0.00000000
Qin_POINT254     01/01/2026  02:15:00  0.00000000
Qin_POINT254     01/01/2026  02:20:00  0.00000000
Qin_POINT254     01/01/2026  02:25:00  0.00000000
Qin_POINT254     01/01/2026  02:30:00  0.00000000
Qin_POINT254     01/01/2026  02:35:00  0.00000000
Qin_POINT254     01/01/2026  02:40:00  0.00000000
Qin_POINT254     01/01/2026  02:45:00  0.00000000
Qin_POINT254     01/01/2026  02:50:00  0.00000000
Qin_POINT254     01/01/2026  02:55:00  0.00000000
Qin_POINT254     01/01/2026  03:00:00  0.00000000
Qin_POINT255     01/01/2026  00:00:00  0.00000000
Qin_POINT255     01/01/2026  00:05:00  0.00023698
Qin_POINT255     01/01/2026  00:10:00  0.00061615
Qin_POINT255     01/01/2026  00:15:00  0.00127970
Qin_POINT255     01/01/2026  00:20:00  0.00224225
Qin_POINT255     01/01/2026  00:25:00  0.00472109
Qin_POINT255     01/01/2026  00:30:00  0.00782904
Qin_POINT255     01/01/2026  00:35:00  0.01175371
Qin_POINT255     01/01/2026  00:40:00  0.01564474
Qin_POINT255     01/01/2026  00:45:00  0.01296134
Qin_POINT255     01/01/2026  00:50:00  0.00922508
Qin_POINT255     01/01/2026  00:55:00  0.00616419
Qin_POINT255     01/01/2026  01:00:00  0.00412692
Qin_POINT255     01/01/2026  01:05:00  0.00277123
Qin_POINT255     01/01/2026  01:10:00  0.00175439
Qin_POINT255     01/01/2026  01:15:00  0.00073319
Qin_POINT255     01/01/2026  01:20:00  0.00023698
Qin_POINT255     01/01/2026  01:25:00  0.00004740
Qin_POINT255     01/01/2026  01:30:00  0.00000000
Qin_POINT255     01/01/2026  01:35:00  0.00000000
Qin_POINT255     01/01/2026  01:40:00  0.00000000
Qin_POINT255     01/01/2026  01:45:00  0.00000000
Qin_POINT255     01/01/2026  01:50:00  0.00000000
Qin_POINT255     01/01/2026  01:55:00  0.00000000
Qin_POINT255     01/01/2026  02:00:00  0.00000000
Qin_POINT255     01/01/2026  02:05:00  0.00000000
Qin_POINT255     01/01/2026  02:10:00  0.00000000
Qin_POINT255     01/01/2026  02:15:00  0.00000000
Qin_POINT255     01/01/2026  02:20:00  0.00000000
Qin_POINT255     01/01/2026  02:25:00  0.00000000
Qin_POINT255     01/01/2026  02:30:00  0.00000000
Qin_POINT255     01/01/2026  02:35:00  0.00000000
Qin_POINT255     01/01/2026  02:40:00  0.00000000
Qin_POINT255     01/01/2026  02:45:00  0.00000000
Qin_POINT255     01/01/2026  02:50:00  0.00000000
Qin_POINT255     01/01/2026  02:55:00  0.00000000
Qin_POINT255     01/01/2026  03:00:00  0.00000000
Qin_POINT256     01/01/2026  00:00:00  0.00000000
Qin_POINT256     01/01/2026  00:05:00  0.00023698
Qin_POINT256     01/01/2026  00:10:00  0.00061615
Qin_POINT256     01/01/2026  00:15:00  0.00127970
Qin_POINT256     01/01/2026  00:20:00  0.00224225
Qin_POINT256     01/01/2026  00:25:00  0.00472109
Qin_POINT256     01/01/2026  00:30:00  0.00782904
Qin_POINT256     01/01/2026  00:35:00  0.01175371
Qin_POINT256     01/01/2026  00:40:00  0.01564474
Qin_POINT256     01/01/2026  00:45:00  0.01296134
Qin_POINT256     01/01/2026  00:50:00  0.00922508
Qin_POINT256     01/01/2026  00:55:00  0.00616419
Qin_POINT256     01/01/2026  01:00:00  0.00412692
Qin_POINT256     01/01/2026  01:05:00  0.00277123
Qin_POINT256     01/01/2026  01:10:00  0.00175439
Qin_POINT256     01/01/2026  01:15:00  0.00073319
Qin_POINT256     01/01/2026  01:20:00  0.00023698
Qin_POINT256     01/01/2026  01:25:00  0.00004740
Qin_POINT256     01/01/2026  01:30:00  0.00000000
Qin_POINT256     01/01/2026  01:35:00  0.00000000
Qin_POINT256     01/01/2026  01:40:00  0.00000000
Qin_POINT256     01/01/2026  01:45:00  0.00000000
Qin_POINT256     01/01/2026  01:50:00  0.00000000
Qin_POINT256     01/01/2026  01:55:00  0.00000000
Qin_POINT256     01/01/2026  02:00:00  0.00000000
Qin_POINT256     01/01/2026  02:05:00  0.00000000
Qin_POINT256     01/01/2026  02:10:00  0.00000000
Qin_POINT256     01/01/2026  02:15:00  0.00000000
Qin_POINT256     01/01/2026  02:20:00  0.00000000
Qin_POINT256     01/01/2026  02:25:00  0.00000000
Qin_POINT256     01/01/2026  02:30:00  0.00000000
Qin_POINT256     01/01/2026  02:35:00  0.00000000
Qin_POINT256     01/01/2026  02:40:00  0.00000000
Qin_POINT256     01/01/2026  02:45:00  0.00000000
Qin_POINT256     01/01/2026  02:50:00  0.00000000
Qin_POINT256     01/01/2026  02:55:00  0.00000000
Qin_POINT256     01/01/2026  03:00:00  0.00000000
Qin_POINT258     01/01/2026  00:00:00  0.00000000
Qin_POINT258     01/01/2026  00:05:00  0.00023698
Qin_POINT258     01/01/2026  00:10:00  0.00061615
Qin_POINT258     01/01/2026  00:15:00  0.00127970
Qin_POINT258     01/01/2026  00:20:00  0.00224225
Qin_POINT258     01/01/2026  00:25:00  0.00472109
Qin_POINT258     01/01/2026  00:30:00  0.00782904
Qin_POINT258     01/01/2026  00:35:00  0.01175371
Qin_POINT258     01/01/2026  00:40:00  0.01564474
Qin_POINT258     01/01/2026  00:45:00  0.01296134
Qin_POINT258     01/01/2026  00:50:00  0.00922508
Qin_POINT258     01/01/2026  00:55:00  0.00616419
Qin_POINT258     01/01/2026  01:00:00  0.00412692
Qin_POINT258     01/01/2026  01:05:00  0.00277123
Qin_POINT258     01/01/2026  01:10:00  0.00175439
Qin_POINT258     01/01/2026  01:15:00  0.00073319
Qin_POINT258     01/01/2026  01:20:00  0.00023698
Qin_POINT258     01/01/2026  01:25:00  0.00004740
Qin_POINT258     01/01/2026  01:30:00  0.00000000
Qin_POINT258     01/01/2026  01:35:00  0.00000000
Qin_POINT258     01/01/2026  01:40:00  0.00000000
Qin_POINT258     01/01/2026  01:45:00  0.00000000
Qin_POINT258     01/01/2026  01:50:00  0.00000000
Qin_POINT258     01/01/2026  01:55:00  0.00000000
Qin_POINT258     01/01/2026  02:00:00  0.00000000
Qin_POINT258     01/01/2026  02:05:00  0.00000000
Qin_POINT258     01/01/2026  02:10:00  0.00000000
Qin_POINT258     01/01/2026  02:15:00  0.00000000
Qin_POINT258     01/01/2026  02:20:00  0.00000000
Qin_POINT258     01/01/2026  02:25:00  0.00000000
Qin_POINT258     01/01/2026  02:30:00  0.00000000
Qin_POINT258     01/01/2026  02:35:00  0.00000000
Qin_POINT258     01/01/2026  02:40:00  0.00000000
Qin_POINT258     01/01/2026  02:45:00  0.00000000
Qin_POINT258     01/01/2026  02:50:00  0.00000000
Qin_POINT258     01/01/2026  02:55:00  0.00000000
Qin_POINT258     01/01/2026  03:00:00  0.00000000
Qin_POINT259     01/01/2026  00:00:00  0.00000000
Qin_POINT259     01/01/2026  00:05:00  0.00023698
Qin_POINT259     01/01/2026  00:10:00  0.00061615
Qin_POINT259     01/01/2026  00:15:00  0.00127970
Qin_POINT259     01/01/2026  00:20:00  0.00224225
Qin_POINT259     01/01/2026  00:25:00  0.00472109
Qin_POINT259     01/01/2026  00:30:00  0.00782904
Qin_POINT259     01/01/2026  00:35:00  0.01175371
Qin_POINT259     01/01/2026  00:40:00  0.01564474
Qin_POINT259     01/01/2026  00:45:00  0.01296134
Qin_POINT259     01/01/2026  00:50:00  0.00922508
Qin_POINT259     01/01/2026  00:55:00  0.00616419
Qin_POINT259     01/01/2026  01:00:00  0.00412692
Qin_POINT259     01/01/2026  01:05:00  0.00277123
Qin_POINT259     01/01/2026  01:10:00  0.00175439
Qin_POINT259     01/01/2026  01:15:00  0.00073319
Qin_POINT259     01/01/2026  01:20:00  0.00023698
Qin_POINT259     01/01/2026  01:25:00  0.00004740
Qin_POINT259     01/01/2026  01:30:00  0.00000000
Qin_POINT259     01/01/2026  01:35:00  0.00000000
Qin_POINT259     01/01/2026  01:40:00  0.00000000
Qin_POINT259     01/01/2026  01:45:00  0.00000000
Qin_POINT259     01/01/2026  01:50:00  0.00000000
Qin_POINT259     01/01/2026  01:55:00  0.00000000
Qin_POINT259     01/01/2026  02:00:00  0.00000000
Qin_POINT259     01/01/2026  02:05:00  0.00000000
Qin_POINT259     01/01/2026  02:10:00  0.00000000
Qin_POINT259     01/01/2026  02:15:00  0.00000000
Qin_POINT259     01/01/2026  02:20:00  0.00000000
Qin_POINT259     01/01/2026  02:25:00  0.00000000
Qin_POINT259     01/01/2026  02:30:00  0.00000000
Qin_POINT259     01/01/2026  02:35:00  0.00000000
Qin_POINT259     01/01/2026  02:40:00  0.00000000
Qin_POINT259     01/01/2026  02:45:00  0.00000000
Qin_POINT259     01/01/2026  02:50:00  0.00000000
Qin_POINT259     01/01/2026  02:55:00  0.00000000
Qin_POINT259     01/01/2026  03:00:00  0.00000000
Qin_POINT260     01/01/2026  00:00:00  0.00000000
Qin_POINT260     01/01/2026  00:05:00  0.00023698
Qin_POINT260     01/01/2026  00:10:00  0.00061615
Qin_POINT260     01/01/2026  00:15:00  0.00127970
Qin_POINT260     01/01/2026  00:20:00  0.00224225
Qin_POINT260     01/01/2026  00:25:00  0.00472109
Qin_POINT260     01/01/2026  00:30:00  0.00782904
Qin_POINT260     01/01/2026  00:35:00  0.01175371
Qin_POINT260     01/01/2026  00:40:00  0.01564474
Qin_POINT260     01/01/2026  00:45:00  0.01296134
Qin_POINT260     01/01/2026  00:50:00  0.00922508
Qin_POINT260     01/01/2026  00:55:00  0.00616419
Qin_POINT260     01/01/2026  01:00:00  0.00412692
Qin_POINT260     01/01/2026  01:05:00  0.00277123
Qin_POINT260     01/01/2026  01:10:00  0.00175439
Qin_POINT260     01/01/2026  01:15:00  0.00073319
Qin_POINT260     01/01/2026  01:20:00  0.00023698
Qin_POINT260     01/01/2026  01:25:00  0.00004740
Qin_POINT260     01/01/2026  01:30:00  0.00000000
Qin_POINT260     01/01/2026  01:35:00  0.00000000
Qin_POINT260     01/01/2026  01:40:00  0.00000000
Qin_POINT260     01/01/2026  01:45:00  0.00000000
Qin_POINT260     01/01/2026  01:50:00  0.00000000
Qin_POINT260     01/01/2026  01:55:00  0.00000000
Qin_POINT260     01/01/2026  02:00:00  0.00000000
Qin_POINT260     01/01/2026  02:05:00  0.00000000
Qin_POINT260     01/01/2026  02:10:00  0.00000000
Qin_POINT260     01/01/2026  02:15:00  0.00000000
Qin_POINT260     01/01/2026  02:20:00  0.00000000
Qin_POINT260     01/01/2026  02:25:00  0.00000000
Qin_POINT260     01/01/2026  02:30:00  0.00000000
Qin_POINT260     01/01/2026  02:35:00  0.00000000
Qin_POINT260     01/01/2026  02:40:00  0.00000000
Qin_POINT260     01/01/2026  02:45:00  0.00000000
Qin_POINT260     01/01/2026  02:50:00  0.00000000
Qin_POINT260     01/01/2026  02:55:00  0.00000000
Qin_POINT260     01/01/2026  03:00:00  0.00000000
Qin_POINT262     01/01/2026  00:00:00  0.00000000
Qin_POINT262     01/01/2026  00:05:00  0.00023698
Qin_POINT262     01/01/2026  00:10:00  0.00061615
Qin_POINT262     01/01/2026  00:15:00  0.00127970
Qin_POINT262     01/01/2026  00:20:00  0.00224225
Qin_POINT262     01/01/2026  00:25:00  0.00472109
Qin_POINT262     01/01/2026  00:30:00  0.00782904
Qin_POINT262     01/01/2026  00:35:00  0.01175371
Qin_POINT262     01/01/2026  00:40:00  0.01564474
Qin_POINT262     01/01/2026  00:45:00  0.01296134
Qin_POINT262     01/01/2026  00:50:00  0.00922508
Qin_POINT262     01/01/2026  00:55:00  0.00616419
Qin_POINT262     01/01/2026  01:00:00  0.00412692
Qin_POINT262     01/01/2026  01:05:00  0.00277123
Qin_POINT262     01/01/2026  01:10:00  0.00175439
Qin_POINT262     01/01/2026  01:15:00  0.00073319
Qin_POINT262     01/01/2026  01:20:00  0.00023698
Qin_POINT262     01/01/2026  01:25:00  0.00004740
Qin_POINT262     01/01/2026  01:30:00  0.00000000
Qin_POINT262     01/01/2026  01:35:00  0.00000000
Qin_POINT262     01/01/2026  01:40:00  0.00000000
Qin_POINT262     01/01/2026  01:45:00  0.00000000
Qin_POINT262     01/01/2026  01:50:00  0.00000000
Qin_POINT262     01/01/2026  01:55:00  0.00000000
Qin_POINT262     01/01/2026  02:00:00  0.00000000
Qin_POINT262     01/01/2026  02:05:00  0.00000000
Qin_POINT262     01/01/2026  02:10:00  0.00000000
Qin_POINT262     01/01/2026  02:15:00  0.00000000
Qin_POINT262     01/01/2026  02:20:00  0.00000000
Qin_POINT262     01/01/2026  02:25:00  0.00000000
Qin_POINT262     01/01/2026  02:30:00  0.00000000
Qin_POINT262     01/01/2026  02:35:00  0.00000000
Qin_POINT262     01/01/2026  02:40:00  0.00000000
Qin_POINT262     01/01/2026  02:45:00  0.00000000
Qin_POINT262     01/01/2026  02:50:00  0.00000000
Qin_POINT262     01/01/2026  02:55:00  0.00000000
Qin_POINT262     01/01/2026  03:00:00  0.00000000
Qin_POINT263     01/01/2026  00:00:00  0.00000000
Qin_POINT263     01/01/2026  00:05:00  0.00023698
Qin_POINT263     01/01/2026  00:10:00  0.00061615
Qin_POINT263     01/01/2026  00:15:00  0.00127970
Qin_POINT263     01/01/2026  00:20:00  0.00224225
Qin_POINT263     01/01/2026  00:25:00  0.00472109
Qin_POINT263     01/01/2026  00:30:00  0.00782904
Qin_POINT263     01/01/2026  00:35:00  0.01175371
Qin_POINT263     01/01/2026  00:40:00  0.01564474
Qin_POINT263     01/01/2026  00:45:00  0.01296134
Qin_POINT263     01/01/2026  00:50:00  0.00922508
Qin_POINT263     01/01/2026  00:55:00  0.00616419
Qin_POINT263     01/01/2026  01:00:00  0.00412692
Qin_POINT263     01/01/2026  01:05:00  0.00277123
Qin_POINT263     01/01/2026  01:10:00  0.00175439
Qin_POINT263     01/01/2026  01:15:00  0.00073319
Qin_POINT263     01/01/2026  01:20:00  0.00023698
Qin_POINT263     01/01/2026  01:25:00  0.00004740
Qin_POINT263     01/01/2026  01:30:00  0.00000000
Qin_POINT263     01/01/2026  01:35:00  0.00000000
Qin_POINT263     01/01/2026  01:40:00  0.00000000
Qin_POINT263     01/01/2026  01:45:00  0.00000000
Qin_POINT263     01/01/2026  01:50:00  0.00000000
Qin_POINT263     01/01/2026  01:55:00  0.00000000
Qin_POINT263     01/01/2026  02:00:00  0.00000000
Qin_POINT263     01/01/2026  02:05:00  0.00000000
Qin_POINT263     01/01/2026  02:10:00  0.00000000
Qin_POINT263     01/01/2026  02:15:00  0.00000000
Qin_POINT263     01/01/2026  02:20:00  0.00000000
Qin_POINT263     01/01/2026  02:25:00  0.00000000
Qin_POINT263     01/01/2026  02:30:00  0.00000000
Qin_POINT263     01/01/2026  02:35:00  0.00000000
Qin_POINT263     01/01/2026  02:40:00  0.00000000
Qin_POINT263     01/01/2026  02:45:00  0.00000000
Qin_POINT263     01/01/2026  02:50:00  0.00000000
Qin_POINT263     01/01/2026  02:55:00  0.00000000
Qin_POINT263     01/01/2026  03:00:00  0.00000000
Qin_POINT264     01/01/2026  00:00:00  0.00000000
Qin_POINT264     01/01/2026  00:05:00  0.00023698
Qin_POINT264     01/01/2026  00:10:00  0.00061615
Qin_POINT264     01/01/2026  00:15:00  0.00127970
Qin_POINT264     01/01/2026  00:20:00  0.00224225
Qin_POINT264     01/01/2026  00:25:00  0.00472109
Qin_POINT264     01/01/2026  00:30:00  0.00782904
Qin_POINT264     01/01/2026  00:35:00  0.01175371
Qin_POINT264     01/01/2026  00:40:00  0.01564474
Qin_POINT264     01/01/2026  00:45:00  0.01296134
Qin_POINT264     01/01/2026  00:50:00  0.00922508
Qin_POINT264     01/01/2026  00:55:00  0.00616419
Qin_POINT264     01/01/2026  01:00:00  0.00412692
Qin_POINT264     01/01/2026  01:05:00  0.00277123
Qin_POINT264     01/01/2026  01:10:00  0.00175439
Qin_POINT264     01/01/2026  01:15:00  0.00073319
Qin_POINT264     01/01/2026  01:20:00  0.00023698
Qin_POINT264     01/01/2026  01:25:00  0.00004740
Qin_POINT264     01/01/2026  01:30:00  0.00000000
Qin_POINT264     01/01/2026  01:35:00  0.00000000
Qin_POINT264     01/01/2026  01:40:00  0.00000000
Qin_POINT264     01/01/2026  01:45:00  0.00000000
Qin_POINT264     01/01/2026  01:50:00  0.00000000
Qin_POINT264     01/01/2026  01:55:00  0.00000000
Qin_POINT264     01/01/2026  02:00:00  0.00000000
Qin_POINT264     01/01/2026  02:05:00  0.00000000
Qin_POINT264     01/01/2026  02:10:00  0.00000000
Qin_POINT264     01/01/2026  02:15:00  0.00000000
Qin_POINT264     01/01/2026  02:20:00  0.00000000
Qin_POINT264     01/01/2026  02:25:00  0.00000000
Qin_POINT264     01/01/2026  02:30:00  0.00000000
Qin_POINT264     01/01/2026  02:35:00  0.00000000
Qin_POINT264     01/01/2026  02:40:00  0.00000000
Qin_POINT264     01/01/2026  02:45:00  0.00000000
Qin_POINT264     01/01/2026  02:50:00  0.00000000
Qin_POINT264     01/01/2026  02:55:00  0.00000000
Qin_POINT264     01/01/2026  03:00:00  0.00000000
Qin_POINT265     01/01/2026  00:00:00  0.00000000
Qin_POINT265     01/01/2026  00:05:00  0.00023698
Qin_POINT265     01/01/2026  00:10:00  0.00061615
Qin_POINT265     01/01/2026  00:15:00  0.00127970
Qin_POINT265     01/01/2026  00:20:00  0.00224225
Qin_POINT265     01/01/2026  00:25:00  0.00472109
Qin_POINT265     01/01/2026  00:30:00  0.00782904
Qin_POINT265     01/01/2026  00:35:00  0.01175371
Qin_POINT265     01/01/2026  00:40:00  0.01564474
Qin_POINT265     01/01/2026  00:45:00  0.01296134
Qin_POINT265     01/01/2026  00:50:00  0.00922508
Qin_POINT265     01/01/2026  00:55:00  0.00616419
Qin_POINT265     01/01/2026  01:00:00  0.00412692
Qin_POINT265     01/01/2026  01:05:00  0.00277123
Qin_POINT265     01/01/2026  01:10:00  0.00175439
Qin_POINT265     01/01/2026  01:15:00  0.00073319
Qin_POINT265     01/01/2026  01:20:00  0.00023698
Qin_POINT265     01/01/2026  01:25:00  0.00004740
Qin_POINT265     01/01/2026  01:30:00  0.00000000
Qin_POINT265     01/01/2026  01:35:00  0.00000000
Qin_POINT265     01/01/2026  01:40:00  0.00000000
Qin_POINT265     01/01/2026  01:45:00  0.00000000
Qin_POINT265     01/01/2026  01:50:00  0.00000000
Qin_POINT265     01/01/2026  01:55:00  0.00000000
Qin_POINT265     01/01/2026  02:00:00  0.00000000
Qin_POINT265     01/01/2026  02:05:00  0.00000000
Qin_POINT265     01/01/2026  02:10:00  0.00000000
Qin_POINT265     01/01/2026  02:15:00  0.00000000
Qin_POINT265     01/01/2026  02:20:00  0.00000000
Qin_POINT265     01/01/2026  02:25:00  0.00000000
Qin_POINT265     01/01/2026  02:30:00  0.00000000
Qin_POINT265     01/01/2026  02:35:00  0.00000000
Qin_POINT265     01/01/2026  02:40:00  0.00000000
Qin_POINT265     01/01/2026  02:45:00  0.00000000
Qin_POINT265     01/01/2026  02:50:00  0.00000000
Qin_POINT265     01/01/2026  02:55:00  0.00000000
Qin_POINT265     01/01/2026  03:00:00  0.00000000
Qin_POINT266     01/01/2026  00:00:00  0.00000000
Qin_POINT266     01/01/2026  00:05:00  0.00023698
Qin_POINT266     01/01/2026  00:10:00  0.00061615
Qin_POINT266     01/01/2026  00:15:00  0.00127970
Qin_POINT266     01/01/2026  00:20:00  0.00224225
Qin_POINT266     01/01/2026  00:25:00  0.00472109
Qin_POINT266     01/01/2026  00:30:00  0.00782904
Qin_POINT266     01/01/2026  00:35:00  0.01175371
Qin_POINT266     01/01/2026  00:40:00  0.01564474
Qin_POINT266     01/01/2026  00:45:00  0.01296134
Qin_POINT266     01/01/2026  00:50:00  0.00922508
Qin_POINT266     01/01/2026  00:55:00  0.00616419
Qin_POINT266     01/01/2026  01:00:00  0.00412692
Qin_POINT266     01/01/2026  01:05:00  0.00277123
Qin_POINT266     01/01/2026  01:10:00  0.00175439
Qin_POINT266     01/01/2026  01:15:00  0.00073319
Qin_POINT266     01/01/2026  01:20:00  0.00023698
Qin_POINT266     01/01/2026  01:25:00  0.00004740
Qin_POINT266     01/01/2026  01:30:00  0.00000000
Qin_POINT266     01/01/2026  01:35:00  0.00000000
Qin_POINT266     01/01/2026  01:40:00  0.00000000
Qin_POINT266     01/01/2026  01:45:00  0.00000000
Qin_POINT266     01/01/2026  01:50:00  0.00000000
Qin_POINT266     01/01/2026  01:55:00  0.00000000
Qin_POINT266     01/01/2026  02:00:00  0.00000000
Qin_POINT266     01/01/2026  02:05:00  0.00000000
Qin_POINT266     01/01/2026  02:10:00  0.00000000
Qin_POINT266     01/01/2026  02:15:00  0.00000000
Qin_POINT266     01/01/2026  02:20:00  0.00000000
Qin_POINT266     01/01/2026  02:25:00  0.00000000
Qin_POINT266     01/01/2026  02:30:00  0.00000000
Qin_POINT266     01/01/2026  02:35:00  0.00000000
Qin_POINT266     01/01/2026  02:40:00  0.00000000
Qin_POINT266     01/01/2026  02:45:00  0.00000000
Qin_POINT266     01/01/2026  02:50:00  0.00000000
Qin_POINT266     01/01/2026  02:55:00  0.00000000
Qin_POINT266     01/01/2026  03:00:00  0.00000000
Qin_POINT267     01/01/2026  00:00:00  0.00000000
Qin_POINT267     01/01/2026  00:05:00  0.00023698
Qin_POINT267     01/01/2026  00:10:00  0.00061615
Qin_POINT267     01/01/2026  00:15:00  0.00127970
Qin_POINT267     01/01/2026  00:20:00  0.00224225
Qin_POINT267     01/01/2026  00:25:00  0.00472109
Qin_POINT267     01/01/2026  00:30:00  0.00782904
Qin_POINT267     01/01/2026  00:35:00  0.01175371
Qin_POINT267     01/01/2026  00:40:00  0.01564474
Qin_POINT267     01/01/2026  00:45:00  0.01296134
Qin_POINT267     01/01/2026  00:50:00  0.00922508
Qin_POINT267     01/01/2026  00:55:00  0.00616419
Qin_POINT267     01/01/2026  01:00:00  0.00412692
Qin_POINT267     01/01/2026  01:05:00  0.00277123
Qin_POINT267     01/01/2026  01:10:00  0.00175439
Qin_POINT267     01/01/2026  01:15:00  0.00073319
Qin_POINT267     01/01/2026  01:20:00  0.00023698
Qin_POINT267     01/01/2026  01:25:00  0.00004740
Qin_POINT267     01/01/2026  01:30:00  0.00000000
Qin_POINT267     01/01/2026  01:35:00  0.00000000
Qin_POINT267     01/01/2026  01:40:00  0.00000000
Qin_POINT267     01/01/2026  01:45:00  0.00000000
Qin_POINT267     01/01/2026  01:50:00  0.00000000
Qin_POINT267     01/01/2026  01:55:00  0.00000000
Qin_POINT267     01/01/2026  02:00:00  0.00000000
Qin_POINT267     01/01/2026  02:05:00  0.00000000
Qin_POINT267     01/01/2026  02:10:00  0.00000000
Qin_POINT267     01/01/2026  02:15:00  0.00000000
Qin_POINT267     01/01/2026  02:20:00  0.00000000
Qin_POINT267     01/01/2026  02:25:00  0.00000000
Qin_POINT267     01/01/2026  02:30:00  0.00000000
Qin_POINT267     01/01/2026  02:35:00  0.00000000
Qin_POINT267     01/01/2026  02:40:00  0.00000000
Qin_POINT267     01/01/2026  02:45:00  0.00000000
Qin_POINT267     01/01/2026  02:50:00  0.00000000
Qin_POINT267     01/01/2026  02:55:00  0.00000000
Qin_POINT267     01/01/2026  03:00:00  0.00000000
Qin_POINT268     01/01/2026  00:00:00  0.00000000
Qin_POINT268     01/01/2026  00:05:00  0.00023698
Qin_POINT268     01/01/2026  00:10:00  0.00061615
Qin_POINT268     01/01/2026  00:15:00  0.00127970
Qin_POINT268     01/01/2026  00:20:00  0.00224225
Qin_POINT268     01/01/2026  00:25:00  0.00472109
Qin_POINT268     01/01/2026  00:30:00  0.00782904
Qin_POINT268     01/01/2026  00:35:00  0.01175371
Qin_POINT268     01/01/2026  00:40:00  0.01564474
Qin_POINT268     01/01/2026  00:45:00  0.01296134
Qin_POINT268     01/01/2026  00:50:00  0.00922508
Qin_POINT268     01/01/2026  00:55:00  0.00616419
Qin_POINT268     01/01/2026  01:00:00  0.00412692
Qin_POINT268     01/01/2026  01:05:00  0.00277123
Qin_POINT268     01/01/2026  01:10:00  0.00175439
Qin_POINT268     01/01/2026  01:15:00  0.00073319
Qin_POINT268     01/01/2026  01:20:00  0.00023698
Qin_POINT268     01/01/2026  01:25:00  0.00004740
Qin_POINT268     01/01/2026  01:30:00  0.00000000
Qin_POINT268     01/01/2026  01:35:00  0.00000000
Qin_POINT268     01/01/2026  01:40:00  0.00000000
Qin_POINT268     01/01/2026  01:45:00  0.00000000
Qin_POINT268     01/01/2026  01:50:00  0.00000000
Qin_POINT268     01/01/2026  01:55:00  0.00000000
Qin_POINT268     01/01/2026  02:00:00  0.00000000
Qin_POINT268     01/01/2026  02:05:00  0.00000000
Qin_POINT268     01/01/2026  02:10:00  0.00000000
Qin_POINT268     01/01/2026  02:15:00  0.00000000
Qin_POINT268     01/01/2026  02:20:00  0.00000000
Qin_POINT268     01/01/2026  02:25:00  0.00000000
Qin_POINT268     01/01/2026  02:30:00  0.00000000
Qin_POINT268     01/01/2026  02:35:00  0.00000000
Qin_POINT268     01/01/2026  02:40:00  0.00000000
Qin_POINT268     01/01/2026  02:45:00  0.00000000
Qin_POINT268     01/01/2026  02:50:00  0.00000000
Qin_POINT268     01/01/2026  02:55:00  0.00000000
Qin_POINT268     01/01/2026  03:00:00  0.00000000
Qin_POINT270     01/01/2026  00:00:00  0.00000000
Qin_POINT270     01/01/2026  00:05:00  0.00023698
Qin_POINT270     01/01/2026  00:10:00  0.00061615
Qin_POINT270     01/01/2026  00:15:00  0.00127970
Qin_POINT270     01/01/2026  00:20:00  0.00224225
Qin_POINT270     01/01/2026  00:25:00  0.00472109
Qin_POINT270     01/01/2026  00:30:00  0.00782904
Qin_POINT270     01/01/2026  00:35:00  0.01175371
Qin_POINT270     01/01/2026  00:40:00  0.01564474
Qin_POINT270     01/01/2026  00:45:00  0.01296134
Qin_POINT270     01/01/2026  00:50:00  0.00922508
Qin_POINT270     01/01/2026  00:55:00  0.00616419
Qin_POINT270     01/01/2026  01:00:00  0.00412692
Qin_POINT270     01/01/2026  01:05:00  0.00277123
Qin_POINT270     01/01/2026  01:10:00  0.00175439
Qin_POINT270     01/01/2026  01:15:00  0.00073319
Qin_POINT270     01/01/2026  01:20:00  0.00023698
Qin_POINT270     01/01/2026  01:25:00  0.00004740
Qin_POINT270     01/01/2026  01:30:00  0.00000000
Qin_POINT270     01/01/2026  01:35:00  0.00000000
Qin_POINT270     01/01/2026  01:40:00  0.00000000
Qin_POINT270     01/01/2026  01:45:00  0.00000000
Qin_POINT270     01/01/2026  01:50:00  0.00000000
Qin_POINT270     01/01/2026  01:55:00  0.00000000
Qin_POINT270     01/01/2026  02:00:00  0.00000000
Qin_POINT270     01/01/2026  02:05:00  0.00000000
Qin_POINT270     01/01/2026  02:10:00  0.00000000
Qin_POINT270     01/01/2026  02:15:00  0.00000000
Qin_POINT270     01/01/2026  02:20:00  0.00000000
Qin_POINT270     01/01/2026  02:25:00  0.00000000
Qin_POINT270     01/01/2026  02:30:00  0.00000000
Qin_POINT270     01/01/2026  02:35:00  0.00000000
Qin_POINT270     01/01/2026  02:40:00  0.00000000
Qin_POINT270     01/01/2026  02:45:00  0.00000000
Qin_POINT270     01/01/2026  02:50:00  0.00000000
Qin_POINT270     01/01/2026  02:55:00  0.00000000
Qin_POINT270     01/01/2026  03:00:00  0.00000000
Qin_POINT271     01/01/2026  00:00:00  0.00000000
Qin_POINT271     01/01/2026  00:05:00  0.00023698
Qin_POINT271     01/01/2026  00:10:00  0.00061615
Qin_POINT271     01/01/2026  00:15:00  0.00127970
Qin_POINT271     01/01/2026  00:20:00  0.00224225
Qin_POINT271     01/01/2026  00:25:00  0.00472109
Qin_POINT271     01/01/2026  00:30:00  0.00782904
Qin_POINT271     01/01/2026  00:35:00  0.01175371
Qin_POINT271     01/01/2026  00:40:00  0.01564474
Qin_POINT271     01/01/2026  00:45:00  0.01296134
Qin_POINT271     01/01/2026  00:50:00  0.00922508
Qin_POINT271     01/01/2026  00:55:00  0.00616419
Qin_POINT271     01/01/2026  01:00:00  0.00412692
Qin_POINT271     01/01/2026  01:05:00  0.00277123
Qin_POINT271     01/01/2026  01:10:00  0.00175439
Qin_POINT271     01/01/2026  01:15:00  0.00073319
Qin_POINT271     01/01/2026  01:20:00  0.00023698
Qin_POINT271     01/01/2026  01:25:00  0.00004740
Qin_POINT271     01/01/2026  01:30:00  0.00000000
Qin_POINT271     01/01/2026  01:35:00  0.00000000
Qin_POINT271     01/01/2026  01:40:00  0.00000000
Qin_POINT271     01/01/2026  01:45:00  0.00000000
Qin_POINT271     01/01/2026  01:50:00  0.00000000
Qin_POINT271     01/01/2026  01:55:00  0.00000000
Qin_POINT271     01/01/2026  02:00:00  0.00000000
Qin_POINT271     01/01/2026  02:05:00  0.00000000
Qin_POINT271     01/01/2026  02:10:00  0.00000000
Qin_POINT271     01/01/2026  02:15:00  0.00000000
Qin_POINT271     01/01/2026  02:20:00  0.00000000
Qin_POINT271     01/01/2026  02:25:00  0.00000000
Qin_POINT271     01/01/2026  02:30:00  0.00000000
Qin_POINT271     01/01/2026  02:35:00  0.00000000
Qin_POINT271     01/01/2026  02:40:00  0.00000000
Qin_POINT271     01/01/2026  02:45:00  0.00000000
Qin_POINT271     01/01/2026  02:50:00  0.00000000
Qin_POINT271     01/01/2026  02:55:00  0.00000000
Qin_POINT271     01/01/2026  03:00:00  0.00000000
Qin_POINT272     01/01/2026  00:00:00  0.00000000
Qin_POINT272     01/01/2026  00:05:00  0.00023698
Qin_POINT272     01/01/2026  00:10:00  0.00061615
Qin_POINT272     01/01/2026  00:15:00  0.00127970
Qin_POINT272     01/01/2026  00:20:00  0.00224225
Qin_POINT272     01/01/2026  00:25:00  0.00472109
Qin_POINT272     01/01/2026  00:30:00  0.00782904
Qin_POINT272     01/01/2026  00:35:00  0.01175371
Qin_POINT272     01/01/2026  00:40:00  0.01564474
Qin_POINT272     01/01/2026  00:45:00  0.01296134
Qin_POINT272     01/01/2026  00:50:00  0.00922508
Qin_POINT272     01/01/2026  00:55:00  0.00616419
Qin_POINT272     01/01/2026  01:00:00  0.00412692
Qin_POINT272     01/01/2026  01:05:00  0.00277123
Qin_POINT272     01/01/2026  01:10:00  0.00175439
Qin_POINT272     01/01/2026  01:15:00  0.00073319
Qin_POINT272     01/01/2026  01:20:00  0.00023698
Qin_POINT272     01/01/2026  01:25:00  0.00004740
Qin_POINT272     01/01/2026  01:30:00  0.00000000
Qin_POINT272     01/01/2026  01:35:00  0.00000000
Qin_POINT272     01/01/2026  01:40:00  0.00000000
Qin_POINT272     01/01/2026  01:45:00  0.00000000
Qin_POINT272     01/01/2026  01:50:00  0.00000000
Qin_POINT272     01/01/2026  01:55:00  0.00000000
Qin_POINT272     01/01/2026  02:00:00  0.00000000
Qin_POINT272     01/01/2026  02:05:00  0.00000000
Qin_POINT272     01/01/2026  02:10:00  0.00000000
Qin_POINT272     01/01/2026  02:15:00  0.00000000
Qin_POINT272     01/01/2026  02:20:00  0.00000000
Qin_POINT272     01/01/2026  02:25:00  0.00000000
Qin_POINT272     01/01/2026  02:30:00  0.00000000
Qin_POINT272     01/01/2026  02:35:00  0.00000000
Qin_POINT272     01/01/2026  02:40:00  0.00000000
Qin_POINT272     01/01/2026  02:45:00  0.00000000
Qin_POINT272     01/01/2026  02:50:00  0.00000000
Qin_POINT272     01/01/2026  02:55:00  0.00000000
Qin_POINT272     01/01/2026  03:00:00  0.00000000
Qin_POINT273     01/01/2026  00:00:00  0.00000000
Qin_POINT273     01/01/2026  00:05:00  0.00023698
Qin_POINT273     01/01/2026  00:10:00  0.00061615
Qin_POINT273     01/01/2026  00:15:00  0.00127970
Qin_POINT273     01/01/2026  00:20:00  0.00224225
Qin_POINT273     01/01/2026  00:25:00  0.00472109
Qin_POINT273     01/01/2026  00:30:00  0.00782904
Qin_POINT273     01/01/2026  00:35:00  0.01175371
Qin_POINT273     01/01/2026  00:40:00  0.01564474
Qin_POINT273     01/01/2026  00:45:00  0.01296134
Qin_POINT273     01/01/2026  00:50:00  0.00922508
Qin_POINT273     01/01/2026  00:55:00  0.00616419
Qin_POINT273     01/01/2026  01:00:00  0.00412692
Qin_POINT273     01/01/2026  01:05:00  0.00277123
Qin_POINT273     01/01/2026  01:10:00  0.00175439
Qin_POINT273     01/01/2026  01:15:00  0.00073319
Qin_POINT273     01/01/2026  01:20:00  0.00023698
Qin_POINT273     01/01/2026  01:25:00  0.00004740
Qin_POINT273     01/01/2026  01:30:00  0.00000000
Qin_POINT273     01/01/2026  01:35:00  0.00000000
Qin_POINT273     01/01/2026  01:40:00  0.00000000
Qin_POINT273     01/01/2026  01:45:00  0.00000000
Qin_POINT273     01/01/2026  01:50:00  0.00000000
Qin_POINT273     01/01/2026  01:55:00  0.00000000
Qin_POINT273     01/01/2026  02:00:00  0.00000000
Qin_POINT273     01/01/2026  02:05:00  0.00000000
Qin_POINT273     01/01/2026  02:10:00  0.00000000
Qin_POINT273     01/01/2026  02:15:00  0.00000000
Qin_POINT273     01/01/2026  02:20:00  0.00000000
Qin_POINT273     01/01/2026  02:25:00  0.00000000
Qin_POINT273     01/01/2026  02:30:00  0.00000000
Qin_POINT273     01/01/2026  02:35:00  0.00000000
Qin_POINT273     01/01/2026  02:40:00  0.00000000
Qin_POINT273     01/01/2026  02:45:00  0.00000000
Qin_POINT273     01/01/2026  02:50:00  0.00000000
Qin_POINT273     01/01/2026  02:55:00  0.00000000
Qin_POINT273     01/01/2026  03:00:00  0.00000000
Qin_POINT275     01/01/2026  00:00:00  0.00000000
Qin_POINT275     01/01/2026  00:05:00  0.00023698
Qin_POINT275     01/01/2026  00:10:00  0.00061615
Qin_POINT275     01/01/2026  00:15:00  0.00127970
Qin_POINT275     01/01/2026  00:20:00  0.00224225
Qin_POINT275     01/01/2026  00:25:00  0.00472109
Qin_POINT275     01/01/2026  00:30:00  0.00782904
Qin_POINT275     01/01/2026  00:35:00  0.01175371
Qin_POINT275     01/01/2026  00:40:00  0.01564474
Qin_POINT275     01/01/2026  00:45:00  0.01296134
Qin_POINT275     01/01/2026  00:50:00  0.00922508
Qin_POINT275     01/01/2026  00:55:00  0.00616419
Qin_POINT275     01/01/2026  01:00:00  0.00412692
Qin_POINT275     01/01/2026  01:05:00  0.00277123
Qin_POINT275     01/01/2026  01:10:00  0.00175439
Qin_POINT275     01/01/2026  01:15:00  0.00073319
Qin_POINT275     01/01/2026  01:20:00  0.00023698
Qin_POINT275     01/01/2026  01:25:00  0.00004740
Qin_POINT275     01/01/2026  01:30:00  0.00000000
Qin_POINT275     01/01/2026  01:35:00  0.00000000
Qin_POINT275     01/01/2026  01:40:00  0.00000000
Qin_POINT275     01/01/2026  01:45:00  0.00000000
Qin_POINT275     01/01/2026  01:50:00  0.00000000
Qin_POINT275     01/01/2026  01:55:00  0.00000000
Qin_POINT275     01/01/2026  02:00:00  0.00000000
Qin_POINT275     01/01/2026  02:05:00  0.00000000
Qin_POINT275     01/01/2026  02:10:00  0.00000000
Qin_POINT275     01/01/2026  02:15:00  0.00000000
Qin_POINT275     01/01/2026  02:20:00  0.00000000
Qin_POINT275     01/01/2026  02:25:00  0.00000000
Qin_POINT275     01/01/2026  02:30:00  0.00000000
Qin_POINT275     01/01/2026  02:35:00  0.00000000
Qin_POINT275     01/01/2026  02:40:00  0.00000000
Qin_POINT275     01/01/2026  02:45:00  0.00000000
Qin_POINT275     01/01/2026  02:50:00  0.00000000
Qin_POINT275     01/01/2026  02:55:00  0.00000000
Qin_POINT275     01/01/2026  03:00:00  0.00000000
Qin_POINT276     01/01/2026  00:00:00  0.00000000
Qin_POINT276     01/01/2026  00:05:00  0.00023698
Qin_POINT276     01/01/2026  00:10:00  0.00061615
Qin_POINT276     01/01/2026  00:15:00  0.00127970
Qin_POINT276     01/01/2026  00:20:00  0.00224225
Qin_POINT276     01/01/2026  00:25:00  0.00472109
Qin_POINT276     01/01/2026  00:30:00  0.00782904
Qin_POINT276     01/01/2026  00:35:00  0.01175371
Qin_POINT276     01/01/2026  00:40:00  0.01564474
Qin_POINT276     01/01/2026  00:45:00  0.01296134
Qin_POINT276     01/01/2026  00:50:00  0.00922508
Qin_POINT276     01/01/2026  00:55:00  0.00616419
Qin_POINT276     01/01/2026  01:00:00  0.00412692
Qin_POINT276     01/01/2026  01:05:00  0.00277123
Qin_POINT276     01/01/2026  01:10:00  0.00175439
Qin_POINT276     01/01/2026  01:15:00  0.00073319
Qin_POINT276     01/01/2026  01:20:00  0.00023698
Qin_POINT276     01/01/2026  01:25:00  0.00004740
Qin_POINT276     01/01/2026  01:30:00  0.00000000
Qin_POINT276     01/01/2026  01:35:00  0.00000000
Qin_POINT276     01/01/2026  01:40:00  0.00000000
Qin_POINT276     01/01/2026  01:45:00  0.00000000
Qin_POINT276     01/01/2026  01:50:00  0.00000000
Qin_POINT276     01/01/2026  01:55:00  0.00000000
Qin_POINT276     01/01/2026  02:00:00  0.00000000
Qin_POINT276     01/01/2026  02:05:00  0.00000000
Qin_POINT276     01/01/2026  02:10:00  0.00000000
Qin_POINT276     01/01/2026  02:15:00  0.00000000
Qin_POINT276     01/01/2026  02:20:00  0.00000000
Qin_POINT276     01/01/2026  02:25:00  0.00000000
Qin_POINT276     01/01/2026  02:30:00  0.00000000
Qin_POINT276     01/01/2026  02:35:00  0.00000000
Qin_POINT276     01/01/2026  02:40:00  0.00000000
Qin_POINT276     01/01/2026  02:45:00  0.00000000
Qin_POINT276     01/01/2026  02:50:00  0.00000000
Qin_POINT276     01/01/2026  02:55:00  0.00000000
Qin_POINT276     01/01/2026  03:00:00  0.00000000
Qin_POINT277     01/01/2026  00:00:00  0.00000000
Qin_POINT277     01/01/2026  00:05:00  0.00023698
Qin_POINT277     01/01/2026  00:10:00  0.00061615
Qin_POINT277     01/01/2026  00:15:00  0.00127970
Qin_POINT277     01/01/2026  00:20:00  0.00224225
Qin_POINT277     01/01/2026  00:25:00  0.00472109
Qin_POINT277     01/01/2026  00:30:00  0.00782904
Qin_POINT277     01/01/2026  00:35:00  0.01175371
Qin_POINT277     01/01/2026  00:40:00  0.01564474
Qin_POINT277     01/01/2026  00:45:00  0.01296134
Qin_POINT277     01/01/2026  00:50:00  0.00922508
Qin_POINT277     01/01/2026  00:55:00  0.00616419
Qin_POINT277     01/01/2026  01:00:00  0.00412692
Qin_POINT277     01/01/2026  01:05:00  0.00277123
Qin_POINT277     01/01/2026  01:10:00  0.00175439
Qin_POINT277     01/01/2026  01:15:00  0.00073319
Qin_POINT277     01/01/2026  01:20:00  0.00023698
Qin_POINT277     01/01/2026  01:25:00  0.00004740
Qin_POINT277     01/01/2026  01:30:00  0.00000000
Qin_POINT277     01/01/2026  01:35:00  0.00000000
Qin_POINT277     01/01/2026  01:40:00  0.00000000
Qin_POINT277     01/01/2026  01:45:00  0.00000000
Qin_POINT277     01/01/2026  01:50:00  0.00000000
Qin_POINT277     01/01/2026  01:55:00  0.00000000
Qin_POINT277     01/01/2026  02:00:00  0.00000000
Qin_POINT277     01/01/2026  02:05:00  0.00000000
Qin_POINT277     01/01/2026  02:10:00  0.00000000
Qin_POINT277     01/01/2026  02:15:00  0.00000000
Qin_POINT277     01/01/2026  02:20:00  0.00000000
Qin_POINT277     01/01/2026  02:25:00  0.00000000
Qin_POINT277     01/01/2026  02:30:00  0.00000000
Qin_POINT277     01/01/2026  02:35:00  0.00000000
Qin_POINT277     01/01/2026  02:40:00  0.00000000
Qin_POINT277     01/01/2026  02:45:00  0.00000000
Qin_POINT277     01/01/2026  02:50:00  0.00000000
Qin_POINT277     01/01/2026  02:55:00  0.00000000
Qin_POINT277     01/01/2026  03:00:00  0.00000000
Qin_POINT278     01/01/2026  00:00:00  0.00000000
Qin_POINT278     01/01/2026  00:05:00  0.00023698
Qin_POINT278     01/01/2026  00:10:00  0.00061615
Qin_POINT278     01/01/2026  00:15:00  0.00127970
Qin_POINT278     01/01/2026  00:20:00  0.00224225
Qin_POINT278     01/01/2026  00:25:00  0.00472109
Qin_POINT278     01/01/2026  00:30:00  0.00782904
Qin_POINT278     01/01/2026  00:35:00  0.01175371
Qin_POINT278     01/01/2026  00:40:00  0.01564474
Qin_POINT278     01/01/2026  00:45:00  0.01296134
Qin_POINT278     01/01/2026  00:50:00  0.00922508
Qin_POINT278     01/01/2026  00:55:00  0.00616419
Qin_POINT278     01/01/2026  01:00:00  0.00412692
Qin_POINT278     01/01/2026  01:05:00  0.00277123
Qin_POINT278     01/01/2026  01:10:00  0.00175439
Qin_POINT278     01/01/2026  01:15:00  0.00073319
Qin_POINT278     01/01/2026  01:20:00  0.00023698
Qin_POINT278     01/01/2026  01:25:00  0.00004740
Qin_POINT278     01/01/2026  01:30:00  0.00000000
Qin_POINT278     01/01/2026  01:35:00  0.00000000
Qin_POINT278     01/01/2026  01:40:00  0.00000000
Qin_POINT278     01/01/2026  01:45:00  0.00000000
Qin_POINT278     01/01/2026  01:50:00  0.00000000
Qin_POINT278     01/01/2026  01:55:00  0.00000000
Qin_POINT278     01/01/2026  02:00:00  0.00000000
Qin_POINT278     01/01/2026  02:05:00  0.00000000
Qin_POINT278     01/01/2026  02:10:00  0.00000000
Qin_POINT278     01/01/2026  02:15:00  0.00000000
Qin_POINT278     01/01/2026  02:20:00  0.00000000
Qin_POINT278     01/01/2026  02:25:00  0.00000000
Qin_POINT278     01/01/2026  02:30:00  0.00000000
Qin_POINT278     01/01/2026  02:35:00  0.00000000
Qin_POINT278     01/01/2026  02:40:00  0.00000000
Qin_POINT278     01/01/2026  02:45:00  0.00000000
Qin_POINT278     01/01/2026  02:50:00  0.00000000
Qin_POINT278     01/01/2026  02:55:00  0.00000000
Qin_POINT278     01/01/2026  03:00:00  0.00000000
Qin_POINT279     01/01/2026  00:00:00  0.00000000
Qin_POINT279     01/01/2026  00:05:00  0.00023698
Qin_POINT279     01/01/2026  00:10:00  0.00061615
Qin_POINT279     01/01/2026  00:15:00  0.00127970
Qin_POINT279     01/01/2026  00:20:00  0.00224225
Qin_POINT279     01/01/2026  00:25:00  0.00472109
Qin_POINT279     01/01/2026  00:30:00  0.00782904
Qin_POINT279     01/01/2026  00:35:00  0.01175371
Qin_POINT279     01/01/2026  00:40:00  0.01564474
Qin_POINT279     01/01/2026  00:45:00  0.01296134
Qin_POINT279     01/01/2026  00:50:00  0.00922508
Qin_POINT279     01/01/2026  00:55:00  0.00616419
Qin_POINT279     01/01/2026  01:00:00  0.00412692
Qin_POINT279     01/01/2026  01:05:00  0.00277123
Qin_POINT279     01/01/2026  01:10:00  0.00175439
Qin_POINT279     01/01/2026  01:15:00  0.00073319
Qin_POINT279     01/01/2026  01:20:00  0.00023698
Qin_POINT279     01/01/2026  01:25:00  0.00004740
Qin_POINT279     01/01/2026  01:30:00  0.00000000
Qin_POINT279     01/01/2026  01:35:00  0.00000000
Qin_POINT279     01/01/2026  01:40:00  0.00000000
Qin_POINT279     01/01/2026  01:45:00  0.00000000
Qin_POINT279     01/01/2026  01:50:00  0.00000000
Qin_POINT279     01/01/2026  01:55:00  0.00000000
Qin_POINT279     01/01/2026  02:00:00  0.00000000
Qin_POINT279     01/01/2026  02:05:00  0.00000000
Qin_POINT279     01/01/2026  02:10:00  0.00000000
Qin_POINT279     01/01/2026  02:15:00  0.00000000
Qin_POINT279     01/01/2026  02:20:00  0.00000000
Qin_POINT279     01/01/2026  02:25:00  0.00000000
Qin_POINT279     01/01/2026  02:30:00  0.00000000
Qin_POINT279     01/01/2026  02:35:00  0.00000000
Qin_POINT279     01/01/2026  02:40:00  0.00000000
Qin_POINT279     01/01/2026  02:45:00  0.00000000
Qin_POINT279     01/01/2026  02:50:00  0.00000000
Qin_POINT279     01/01/2026  02:55:00  0.00000000
Qin_POINT279     01/01/2026  03:00:00  0.00000000
Qin_POINT280     01/01/2026  00:00:00  0.00000000
Qin_POINT280     01/01/2026  00:05:00  0.00023698
Qin_POINT280     01/01/2026  00:10:00  0.00061615
Qin_POINT280     01/01/2026  00:15:00  0.00127970
Qin_POINT280     01/01/2026  00:20:00  0.00224225
Qin_POINT280     01/01/2026  00:25:00  0.00472109
Qin_POINT280     01/01/2026  00:30:00  0.00782904
Qin_POINT280     01/01/2026  00:35:00  0.01175371
Qin_POINT280     01/01/2026  00:40:00  0.01564474
Qin_POINT280     01/01/2026  00:45:00  0.01296134
Qin_POINT280     01/01/2026  00:50:00  0.00922508
Qin_POINT280     01/01/2026  00:55:00  0.00616419
Qin_POINT280     01/01/2026  01:00:00  0.00412692
Qin_POINT280     01/01/2026  01:05:00  0.00277123
Qin_POINT280     01/01/2026  01:10:00  0.00175439
Qin_POINT280     01/01/2026  01:15:00  0.00073319
Qin_POINT280     01/01/2026  01:20:00  0.00023698
Qin_POINT280     01/01/2026  01:25:00  0.00004740
Qin_POINT280     01/01/2026  01:30:00  0.00000000
Qin_POINT280     01/01/2026  01:35:00  0.00000000
Qin_POINT280     01/01/2026  01:40:00  0.00000000
Qin_POINT280     01/01/2026  01:45:00  0.00000000
Qin_POINT280     01/01/2026  01:50:00  0.00000000
Qin_POINT280     01/01/2026  01:55:00  0.00000000
Qin_POINT280     01/01/2026  02:00:00  0.00000000
Qin_POINT280     01/01/2026  02:05:00  0.00000000
Qin_POINT280     01/01/2026  02:10:00  0.00000000
Qin_POINT280     01/01/2026  02:15:00  0.00000000
Qin_POINT280     01/01/2026  02:20:00  0.00000000
Qin_POINT280     01/01/2026  02:25:00  0.00000000
Qin_POINT280     01/01/2026  02:30:00  0.00000000
Qin_POINT280     01/01/2026  02:35:00  0.00000000
Qin_POINT280     01/01/2026  02:40:00  0.00000000
Qin_POINT280     01/01/2026  02:45:00  0.00000000
Qin_POINT280     01/01/2026  02:50:00  0.00000000
Qin_POINT280     01/01/2026  02:55:00  0.00000000
Qin_POINT280     01/01/2026  03:00:00  0.00000000
Qin_POINT281     01/01/2026  00:00:00  0.00000000
Qin_POINT281     01/01/2026  00:05:00  0.00023698
Qin_POINT281     01/01/2026  00:10:00  0.00061615
Qin_POINT281     01/01/2026  00:15:00  0.00127970
Qin_POINT281     01/01/2026  00:20:00  0.00224225
Qin_POINT281     01/01/2026  00:25:00  0.00472109
Qin_POINT281     01/01/2026  00:30:00  0.00782904
Qin_POINT281     01/01/2026  00:35:00  0.01175371
Qin_POINT281     01/01/2026  00:40:00  0.01564474
Qin_POINT281     01/01/2026  00:45:00  0.01296134
Qin_POINT281     01/01/2026  00:50:00  0.00922508
Qin_POINT281     01/01/2026  00:55:00  0.00616419
Qin_POINT281     01/01/2026  01:00:00  0.00412692
Qin_POINT281     01/01/2026  01:05:00  0.00277123
Qin_POINT281     01/01/2026  01:10:00  0.00175439
Qin_POINT281     01/01/2026  01:15:00  0.00073319
Qin_POINT281     01/01/2026  01:20:00  0.00023698
Qin_POINT281     01/01/2026  01:25:00  0.00004740
Qin_POINT281     01/01/2026  01:30:00  0.00000000
Qin_POINT281     01/01/2026  01:35:00  0.00000000
Qin_POINT281     01/01/2026  01:40:00  0.00000000
Qin_POINT281     01/01/2026  01:45:00  0.00000000
Qin_POINT281     01/01/2026  01:50:00  0.00000000
Qin_POINT281     01/01/2026  01:55:00  0.00000000
Qin_POINT281     01/01/2026  02:00:00  0.00000000
Qin_POINT281     01/01/2026  02:05:00  0.00000000
Qin_POINT281     01/01/2026  02:10:00  0.00000000
Qin_POINT281     01/01/2026  02:15:00  0.00000000
Qin_POINT281     01/01/2026  02:20:00  0.00000000
Qin_POINT281     01/01/2026  02:25:00  0.00000000
Qin_POINT281     01/01/2026  02:30:00  0.00000000
Qin_POINT281     01/01/2026  02:35:00  0.00000000
Qin_POINT281     01/01/2026  02:40:00  0.00000000
Qin_POINT281     01/01/2026  02:45:00  0.00000000
Qin_POINT281     01/01/2026  02:50:00  0.00000000
Qin_POINT281     01/01/2026  02:55:00  0.00000000
Qin_POINT281     01/01/2026  03:00:00  0.00000000
Qin_POINT282     01/01/2026  00:00:00  0.00000000
Qin_POINT282     01/01/2026  00:05:00  0.00023698
Qin_POINT282     01/01/2026  00:10:00  0.00061615
Qin_POINT282     01/01/2026  00:15:00  0.00127970
Qin_POINT282     01/01/2026  00:20:00  0.00224225
Qin_POINT282     01/01/2026  00:25:00  0.00472109
Qin_POINT282     01/01/2026  00:30:00  0.00782904
Qin_POINT282     01/01/2026  00:35:00  0.01175371
Qin_POINT282     01/01/2026  00:40:00  0.01564474
Qin_POINT282     01/01/2026  00:45:00  0.01296134
Qin_POINT282     01/01/2026  00:50:00  0.00922508
Qin_POINT282     01/01/2026  00:55:00  0.00616419
Qin_POINT282     01/01/2026  01:00:00  0.00412692
Qin_POINT282     01/01/2026  01:05:00  0.00277123
Qin_POINT282     01/01/2026  01:10:00  0.00175439
Qin_POINT282     01/01/2026  01:15:00  0.00073319
Qin_POINT282     01/01/2026  01:20:00  0.00023698
Qin_POINT282     01/01/2026  01:25:00  0.00004740
Qin_POINT282     01/01/2026  01:30:00  0.00000000
Qin_POINT282     01/01/2026  01:35:00  0.00000000
Qin_POINT282     01/01/2026  01:40:00  0.00000000
Qin_POINT282     01/01/2026  01:45:00  0.00000000
Qin_POINT282     01/01/2026  01:50:00  0.00000000
Qin_POINT282     01/01/2026  01:55:00  0.00000000
Qin_POINT282     01/01/2026  02:00:00  0.00000000
Qin_POINT282     01/01/2026  02:05:00  0.00000000
Qin_POINT282     01/01/2026  02:10:00  0.00000000
Qin_POINT282     01/01/2026  02:15:00  0.00000000
Qin_POINT282     01/01/2026  02:20:00  0.00000000
Qin_POINT282     01/01/2026  02:25:00  0.00000000
Qin_POINT282     01/01/2026  02:30:00  0.00000000
Qin_POINT282     01/01/2026  02:35:00  0.00000000
Qin_POINT282     01/01/2026  02:40:00  0.00000000
Qin_POINT282     01/01/2026  02:45:00  0.00000000
Qin_POINT282     01/01/2026  02:50:00  0.00000000
Qin_POINT282     01/01/2026  02:55:00  0.00000000
Qin_POINT282     01/01/2026  03:00:00  0.00000000
Qin_POINT283     01/01/2026  00:00:00  0.00000000
Qin_POINT283     01/01/2026  00:05:00  0.00023698
Qin_POINT283     01/01/2026  00:10:00  0.00061615
Qin_POINT283     01/01/2026  00:15:00  0.00127970
Qin_POINT283     01/01/2026  00:20:00  0.00224225
Qin_POINT283     01/01/2026  00:25:00  0.00472109
Qin_POINT283     01/01/2026  00:30:00  0.00782904
Qin_POINT283     01/01/2026  00:35:00  0.01175371
Qin_POINT283     01/01/2026  00:40:00  0.01564474
Qin_POINT283     01/01/2026  00:45:00  0.01296134
Qin_POINT283     01/01/2026  00:50:00  0.00922508
Qin_POINT283     01/01/2026  00:55:00  0.00616419
Qin_POINT283     01/01/2026  01:00:00  0.00412692
Qin_POINT283     01/01/2026  01:05:00  0.00277123
Qin_POINT283     01/01/2026  01:10:00  0.00175439
Qin_POINT283     01/01/2026  01:15:00  0.00073319
Qin_POINT283     01/01/2026  01:20:00  0.00023698
Qin_POINT283     01/01/2026  01:25:00  0.00004740
Qin_POINT283     01/01/2026  01:30:00  0.00000000
Qin_POINT283     01/01/2026  01:35:00  0.00000000
Qin_POINT283     01/01/2026  01:40:00  0.00000000
Qin_POINT283     01/01/2026  01:45:00  0.00000000
Qin_POINT283     01/01/2026  01:50:00  0.00000000
Qin_POINT283     01/01/2026  01:55:00  0.00000000
Qin_POINT283     01/01/2026  02:00:00  0.00000000
Qin_POINT283     01/01/2026  02:05:00  0.00000000
Qin_POINT283     01/01/2026  02:10:00  0.00000000
Qin_POINT283     01/01/2026  02:15:00  0.00000000
Qin_POINT283     01/01/2026  02:20:00  0.00000000
Qin_POINT283     01/01/2026  02:25:00  0.00000000
Qin_POINT283     01/01/2026  02:30:00  0.00000000
Qin_POINT283     01/01/2026  02:35:00  0.00000000
Qin_POINT283     01/01/2026  02:40:00  0.00000000
Qin_POINT283     01/01/2026  02:45:00  0.00000000
Qin_POINT283     01/01/2026  02:50:00  0.00000000
Qin_POINT283     01/01/2026  02:55:00  0.00000000
Qin_POINT283     01/01/2026  03:00:00  0.00000000
Qin_POINT284     01/01/2026  00:00:00  0.00000000
Qin_POINT284     01/01/2026  00:05:00  0.00023698
Qin_POINT284     01/01/2026  00:10:00  0.00061615
Qin_POINT284     01/01/2026  00:15:00  0.00127970
Qin_POINT284     01/01/2026  00:20:00  0.00224225
Qin_POINT284     01/01/2026  00:25:00  0.00472109
Qin_POINT284     01/01/2026  00:30:00  0.00782904
Qin_POINT284     01/01/2026  00:35:00  0.01175371
Qin_POINT284     01/01/2026  00:40:00  0.01564474
Qin_POINT284     01/01/2026  00:45:00  0.01296134
Qin_POINT284     01/01/2026  00:50:00  0.00922508
Qin_POINT284     01/01/2026  00:55:00  0.00616419
Qin_POINT284     01/01/2026  01:00:00  0.00412692
Qin_POINT284     01/01/2026  01:05:00  0.00277123
Qin_POINT284     01/01/2026  01:10:00  0.00175439
Qin_POINT284     01/01/2026  01:15:00  0.00073319
Qin_POINT284     01/01/2026  01:20:00  0.00023698
Qin_POINT284     01/01/2026  01:25:00  0.00004740
Qin_POINT284     01/01/2026  01:30:00  0.00000000
Qin_POINT284     01/01/2026  01:35:00  0.00000000
Qin_POINT284     01/01/2026  01:40:00  0.00000000
Qin_POINT284     01/01/2026  01:45:00  0.00000000
Qin_POINT284     01/01/2026  01:50:00  0.00000000
Qin_POINT284     01/01/2026  01:55:00  0.00000000
Qin_POINT284     01/01/2026  02:00:00  0.00000000
Qin_POINT284     01/01/2026  02:05:00  0.00000000
Qin_POINT284     01/01/2026  02:10:00  0.00000000
Qin_POINT284     01/01/2026  02:15:00  0.00000000
Qin_POINT284     01/01/2026  02:20:00  0.00000000
Qin_POINT284     01/01/2026  02:25:00  0.00000000
Qin_POINT284     01/01/2026  02:30:00  0.00000000
Qin_POINT284     01/01/2026  02:35:00  0.00000000
Qin_POINT284     01/01/2026  02:40:00  0.00000000
Qin_POINT284     01/01/2026  02:45:00  0.00000000
Qin_POINT284     01/01/2026  02:50:00  0.00000000
Qin_POINT284     01/01/2026  02:55:00  0.00000000
Qin_POINT284     01/01/2026  03:00:00  0.00000000
Qin_POINT285     01/01/2026  00:00:00  0.00000000
Qin_POINT285     01/01/2026  00:05:00  0.00023698
Qin_POINT285     01/01/2026  00:10:00  0.00061615
Qin_POINT285     01/01/2026  00:15:00  0.00127970
Qin_POINT285     01/01/2026  00:20:00  0.00224225
Qin_POINT285     01/01/2026  00:25:00  0.00472109
Qin_POINT285     01/01/2026  00:30:00  0.00782904
Qin_POINT285     01/01/2026  00:35:00  0.01175371
Qin_POINT285     01/01/2026  00:40:00  0.01564474
Qin_POINT285     01/01/2026  00:45:00  0.01296134
Qin_POINT285     01/01/2026  00:50:00  0.00922508
Qin_POINT285     01/01/2026  00:55:00  0.00616419
Qin_POINT285     01/01/2026  01:00:00  0.00412692
Qin_POINT285     01/01/2026  01:05:00  0.00277123
Qin_POINT285     01/01/2026  01:10:00  0.00175439
Qin_POINT285     01/01/2026  01:15:00  0.00073319
Qin_POINT285     01/01/2026  01:20:00  0.00023698
Qin_POINT285     01/01/2026  01:25:00  0.00004740
Qin_POINT285     01/01/2026  01:30:00  0.00000000
Qin_POINT285     01/01/2026  01:35:00  0.00000000
Qin_POINT285     01/01/2026  01:40:00  0.00000000
Qin_POINT285     01/01/2026  01:45:00  0.00000000
Qin_POINT285     01/01/2026  01:50:00  0.00000000
Qin_POINT285     01/01/2026  01:55:00  0.00000000
Qin_POINT285     01/01/2026  02:00:00  0.00000000
Qin_POINT285     01/01/2026  02:05:00  0.00000000
Qin_POINT285     01/01/2026  02:10:00  0.00000000
Qin_POINT285     01/01/2026  02:15:00  0.00000000
Qin_POINT285     01/01/2026  02:20:00  0.00000000
Qin_POINT285     01/01/2026  02:25:00  0.00000000
Qin_POINT285     01/01/2026  02:30:00  0.00000000
Qin_POINT285     01/01/2026  02:35:00  0.00000000
Qin_POINT285     01/01/2026  02:40:00  0.00000000
Qin_POINT285     01/01/2026  02:45:00  0.00000000
Qin_POINT285     01/01/2026  02:50:00  0.00000000
Qin_POINT285     01/01/2026  02:55:00  0.00000000
Qin_POINT285     01/01/2026  03:00:00  0.00000000
Qin_POINT286     01/01/2026  00:00:00  0.00000000
Qin_POINT286     01/01/2026  00:05:00  0.00023698
Qin_POINT286     01/01/2026  00:10:00  0.00061615
Qin_POINT286     01/01/2026  00:15:00  0.00127970
Qin_POINT286     01/01/2026  00:20:00  0.00224225
Qin_POINT286     01/01/2026  00:25:00  0.00472109
Qin_POINT286     01/01/2026  00:30:00  0.00782904
Qin_POINT286     01/01/2026  00:35:00  0.01175371
Qin_POINT286     01/01/2026  00:40:00  0.01564474
Qin_POINT286     01/01/2026  00:45:00  0.01296134
Qin_POINT286     01/01/2026  00:50:00  0.00922508
Qin_POINT286     01/01/2026  00:55:00  0.00616419
Qin_POINT286     01/01/2026  01:00:00  0.00412692
Qin_POINT286     01/01/2026  01:05:00  0.00277123
Qin_POINT286     01/01/2026  01:10:00  0.00175439
Qin_POINT286     01/01/2026  01:15:00  0.00073319
Qin_POINT286     01/01/2026  01:20:00  0.00023698
Qin_POINT286     01/01/2026  01:25:00  0.00004740
Qin_POINT286     01/01/2026  01:30:00  0.00000000
Qin_POINT286     01/01/2026  01:35:00  0.00000000
Qin_POINT286     01/01/2026  01:40:00  0.00000000
Qin_POINT286     01/01/2026  01:45:00  0.00000000
Qin_POINT286     01/01/2026  01:50:00  0.00000000
Qin_POINT286     01/01/2026  01:55:00  0.00000000
Qin_POINT286     01/01/2026  02:00:00  0.00000000
Qin_POINT286     01/01/2026  02:05:00  0.00000000
Qin_POINT286     01/01/2026  02:10:00  0.00000000
Qin_POINT286     01/01/2026  02:15:00  0.00000000
Qin_POINT286     01/01/2026  02:20:00  0.00000000
Qin_POINT286     01/01/2026  02:25:00  0.00000000
Qin_POINT286     01/01/2026  02:30:00  0.00000000
Qin_POINT286     01/01/2026  02:35:00  0.00000000
Qin_POINT286     01/01/2026  02:40:00  0.00000000
Qin_POINT286     01/01/2026  02:45:00  0.00000000
Qin_POINT286     01/01/2026  02:50:00  0.00000000
Qin_POINT286     01/01/2026  02:55:00  0.00000000
Qin_POINT286     01/01/2026  03:00:00  0.00000000
Qin_POINT287     01/01/2026  00:00:00  0.00000000
Qin_POINT287     01/01/2026  00:05:00  0.00023698
Qin_POINT287     01/01/2026  00:10:00  0.00061615
Qin_POINT287     01/01/2026  00:15:00  0.00127970
Qin_POINT287     01/01/2026  00:20:00  0.00224225
Qin_POINT287     01/01/2026  00:25:00  0.00472109
Qin_POINT287     01/01/2026  00:30:00  0.00782904
Qin_POINT287     01/01/2026  00:35:00  0.01175371
Qin_POINT287     01/01/2026  00:40:00  0.01564474
Qin_POINT287     01/01/2026  00:45:00  0.01296134
Qin_POINT287     01/01/2026  00:50:00  0.00922508
Qin_POINT287     01/01/2026  00:55:00  0.00616419
Qin_POINT287     01/01/2026  01:00:00  0.00412692
Qin_POINT287     01/01/2026  01:05:00  0.00277123
Qin_POINT287     01/01/2026  01:10:00  0.00175439
Qin_POINT287     01/01/2026  01:15:00  0.00073319
Qin_POINT287     01/01/2026  01:20:00  0.00023698
Qin_POINT287     01/01/2026  01:25:00  0.00004740
Qin_POINT287     01/01/2026  01:30:00  0.00000000
Qin_POINT287     01/01/2026  01:35:00  0.00000000
Qin_POINT287     01/01/2026  01:40:00  0.00000000
Qin_POINT287     01/01/2026  01:45:00  0.00000000
Qin_POINT287     01/01/2026  01:50:00  0.00000000
Qin_POINT287     01/01/2026  01:55:00  0.00000000
Qin_POINT287     01/01/2026  02:00:00  0.00000000
Qin_POINT287     01/01/2026  02:05:00  0.00000000
Qin_POINT287     01/01/2026  02:10:00  0.00000000
Qin_POINT287     01/01/2026  02:15:00  0.00000000
Qin_POINT287     01/01/2026  02:20:00  0.00000000
Qin_POINT287     01/01/2026  02:25:00  0.00000000
Qin_POINT287     01/01/2026  02:30:00  0.00000000
Qin_POINT287     01/01/2026  02:35:00  0.00000000
Qin_POINT287     01/01/2026  02:40:00  0.00000000
Qin_POINT287     01/01/2026  02:45:00  0.00000000
Qin_POINT287     01/01/2026  02:50:00  0.00000000
Qin_POINT287     01/01/2026  02:55:00  0.00000000
Qin_POINT287     01/01/2026  03:00:00  0.00000000
Qin_POINT288     01/01/2026  00:00:00  0.00000000
Qin_POINT288     01/01/2026  00:05:00  0.00023698
Qin_POINT288     01/01/2026  00:10:00  0.00061615
Qin_POINT288     01/01/2026  00:15:00  0.00127970
Qin_POINT288     01/01/2026  00:20:00  0.00224225
Qin_POINT288     01/01/2026  00:25:00  0.00472109
Qin_POINT288     01/01/2026  00:30:00  0.00782904
Qin_POINT288     01/01/2026  00:35:00  0.01175371
Qin_POINT288     01/01/2026  00:40:00  0.01564474
Qin_POINT288     01/01/2026  00:45:00  0.01296134
Qin_POINT288     01/01/2026  00:50:00  0.00922508
Qin_POINT288     01/01/2026  00:55:00  0.00616419
Qin_POINT288     01/01/2026  01:00:00  0.00412692
Qin_POINT288     01/01/2026  01:05:00  0.00277123
Qin_POINT288     01/01/2026  01:10:00  0.00175439
Qin_POINT288     01/01/2026  01:15:00  0.00073319
Qin_POINT288     01/01/2026  01:20:00  0.00023698
Qin_POINT288     01/01/2026  01:25:00  0.00004740
Qin_POINT288     01/01/2026  01:30:00  0.00000000
Qin_POINT288     01/01/2026  01:35:00  0.00000000
Qin_POINT288     01/01/2026  01:40:00  0.00000000
Qin_POINT288     01/01/2026  01:45:00  0.00000000
Qin_POINT288     01/01/2026  01:50:00  0.00000000
Qin_POINT288     01/01/2026  01:55:00  0.00000000
Qin_POINT288     01/01/2026  02:00:00  0.00000000
Qin_POINT288     01/01/2026  02:05:00  0.00000000
Qin_POINT288     01/01/2026  02:10:00  0.00000000
Qin_POINT288     01/01/2026  02:15:00  0.00000000
Qin_POINT288     01/01/2026  02:20:00  0.00000000
Qin_POINT288     01/01/2026  02:25:00  0.00000000
Qin_POINT288     01/01/2026  02:30:00  0.00000000
Qin_POINT288     01/01/2026  02:35:00  0.00000000
Qin_POINT288     01/01/2026  02:40:00  0.00000000
Qin_POINT288     01/01/2026  02:45:00  0.00000000
Qin_POINT288     01/01/2026  02:50:00  0.00000000
Qin_POINT288     01/01/2026  02:55:00  0.00000000
Qin_POINT288     01/01/2026  03:00:00  0.00000000
Qin_POINT289     01/01/2026  00:00:00  0.00000000
Qin_POINT289     01/01/2026  00:05:00  0.00023698
Qin_POINT289     01/01/2026  00:10:00  0.00061615
Qin_POINT289     01/01/2026  00:15:00  0.00127970
Qin_POINT289     01/01/2026  00:20:00  0.00224225
Qin_POINT289     01/01/2026  00:25:00  0.00472109
Qin_POINT289     01/01/2026  00:30:00  0.00782904
Qin_POINT289     01/01/2026  00:35:00  0.01175371
Qin_POINT289     01/01/2026  00:40:00  0.01564474
Qin_POINT289     01/01/2026  00:45:00  0.01296134
Qin_POINT289     01/01/2026  00:50:00  0.00922508
Qin_POINT289     01/01/2026  00:55:00  0.00616419
Qin_POINT289     01/01/2026  01:00:00  0.00412692
Qin_POINT289     01/01/2026  01:05:00  0.00277123
Qin_POINT289     01/01/2026  01:10:00  0.00175439
Qin_POINT289     01/01/2026  01:15:00  0.00073319
Qin_POINT289     01/01/2026  01:20:00  0.00023698
Qin_POINT289     01/01/2026  01:25:00  0.00004740
Qin_POINT289     01/01/2026  01:30:00  0.00000000
Qin_POINT289     01/01/2026  01:35:00  0.00000000
Qin_POINT289     01/01/2026  01:40:00  0.00000000
Qin_POINT289     01/01/2026  01:45:00  0.00000000
Qin_POINT289     01/01/2026  01:50:00  0.00000000
Qin_POINT289     01/01/2026  01:55:00  0.00000000
Qin_POINT289     01/01/2026  02:00:00  0.00000000
Qin_POINT289     01/01/2026  02:05:00  0.00000000
Qin_POINT289     01/01/2026  02:10:00  0.00000000
Qin_POINT289     01/01/2026  02:15:00  0.00000000
Qin_POINT289     01/01/2026  02:20:00  0.00000000
Qin_POINT289     01/01/2026  02:25:00  0.00000000
Qin_POINT289     01/01/2026  02:30:00  0.00000000
Qin_POINT289     01/01/2026  02:35:00  0.00000000
Qin_POINT289     01/01/2026  02:40:00  0.00000000
Qin_POINT289     01/01/2026  02:45:00  0.00000000
Qin_POINT289     01/01/2026  02:50:00  0.00000000
Qin_POINT289     01/01/2026  02:55:00  0.00000000
Qin_POINT289     01/01/2026  03:00:00  0.00000000
Qin_POINT290     01/01/2026  00:00:00  0.00000000
Qin_POINT290     01/01/2026  00:05:00  0.00023698
Qin_POINT290     01/01/2026  00:10:00  0.00061615
Qin_POINT290     01/01/2026  00:15:00  0.00127970
Qin_POINT290     01/01/2026  00:20:00  0.00224225
Qin_POINT290     01/01/2026  00:25:00  0.00472109
Qin_POINT290     01/01/2026  00:30:00  0.00782904
Qin_POINT290     01/01/2026  00:35:00  0.01175371
Qin_POINT290     01/01/2026  00:40:00  0.01564474
Qin_POINT290     01/01/2026  00:45:00  0.01296134
Qin_POINT290     01/01/2026  00:50:00  0.00922508
Qin_POINT290     01/01/2026  00:55:00  0.00616419
Qin_POINT290     01/01/2026  01:00:00  0.00412692
Qin_POINT290     01/01/2026  01:05:00  0.00277123
Qin_POINT290     01/01/2026  01:10:00  0.00175439
Qin_POINT290     01/01/2026  01:15:00  0.00073319
Qin_POINT290     01/01/2026  01:20:00  0.00023698
Qin_POINT290     01/01/2026  01:25:00  0.00004740
Qin_POINT290     01/01/2026  01:30:00  0.00000000
Qin_POINT290     01/01/2026  01:35:00  0.00000000
Qin_POINT290     01/01/2026  01:40:00  0.00000000
Qin_POINT290     01/01/2026  01:45:00  0.00000000
Qin_POINT290     01/01/2026  01:50:00  0.00000000
Qin_POINT290     01/01/2026  01:55:00  0.00000000
Qin_POINT290     01/01/2026  02:00:00  0.00000000
Qin_POINT290     01/01/2026  02:05:00  0.00000000
Qin_POINT290     01/01/2026  02:10:00  0.00000000
Qin_POINT290     01/01/2026  02:15:00  0.00000000
Qin_POINT290     01/01/2026  02:20:00  0.00000000
Qin_POINT290     01/01/2026  02:25:00  0.00000000
Qin_POINT290     01/01/2026  02:30:00  0.00000000
Qin_POINT290     01/01/2026  02:35:00  0.00000000
Qin_POINT290     01/01/2026  02:40:00  0.00000000
Qin_POINT290     01/01/2026  02:45:00  0.00000000
Qin_POINT290     01/01/2026  02:50:00  0.00000000
Qin_POINT290     01/01/2026  02:55:00  0.00000000
Qin_POINT290     01/01/2026  03:00:00  0.00000000
Qin_POINT291     01/01/2026  00:00:00  0.00000000
Qin_POINT291     01/01/2026  00:05:00  0.00023698
Qin_POINT291     01/01/2026  00:10:00  0.00061615
Qin_POINT291     01/01/2026  00:15:00  0.00127970
Qin_POINT291     01/01/2026  00:20:00  0.00224225
Qin_POINT291     01/01/2026  00:25:00  0.00472109
Qin_POINT291     01/01/2026  00:30:00  0.00782904
Qin_POINT291     01/01/2026  00:35:00  0.01175371
Qin_POINT291     01/01/2026  00:40:00  0.01564474
Qin_POINT291     01/01/2026  00:45:00  0.01296134
Qin_POINT291     01/01/2026  00:50:00  0.00922508
Qin_POINT291     01/01/2026  00:55:00  0.00616419
Qin_POINT291     01/01/2026  01:00:00  0.00412692
Qin_POINT291     01/01/2026  01:05:00  0.00277123
Qin_POINT291     01/01/2026  01:10:00  0.00175439
Qin_POINT291     01/01/2026  01:15:00  0.00073319
Qin_POINT291     01/01/2026  01:20:00  0.00023698
Qin_POINT291     01/01/2026  01:25:00  0.00004740
Qin_POINT291     01/01/2026  01:30:00  0.00000000
Qin_POINT291     01/01/2026  01:35:00  0.00000000
Qin_POINT291     01/01/2026  01:40:00  0.00000000
Qin_POINT291     01/01/2026  01:45:00  0.00000000
Qin_POINT291     01/01/2026  01:50:00  0.00000000
Qin_POINT291     01/01/2026  01:55:00  0.00000000
Qin_POINT291     01/01/2026  02:00:00  0.00000000
Qin_POINT291     01/01/2026  02:05:00  0.00000000
Qin_POINT291     01/01/2026  02:10:00  0.00000000
Qin_POINT291     01/01/2026  02:15:00  0.00000000
Qin_POINT291     01/01/2026  02:20:00  0.00000000
Qin_POINT291     01/01/2026  02:25:00  0.00000000
Qin_POINT291     01/01/2026  02:30:00  0.00000000
Qin_POINT291     01/01/2026  02:35:00  0.00000000
Qin_POINT291     01/01/2026  02:40:00  0.00000000
Qin_POINT291     01/01/2026  02:45:00  0.00000000
Qin_POINT291     01/01/2026  02:50:00  0.00000000
Qin_POINT291     01/01/2026  02:55:00  0.00000000
Qin_POINT291     01/01/2026  03:00:00  0.00000000
Qin_POINT293     01/01/2026  00:00:00  0.00000000
Qin_POINT293     01/01/2026  00:05:00  0.00023698
Qin_POINT293     01/01/2026  00:10:00  0.00061615
Qin_POINT293     01/01/2026  00:15:00  0.00127970
Qin_POINT293     01/01/2026  00:20:00  0.00224225
Qin_POINT293     01/01/2026  00:25:00  0.00472109
Qin_POINT293     01/01/2026  00:30:00  0.00782904
Qin_POINT293     01/01/2026  00:35:00  0.01175371
Qin_POINT293     01/01/2026  00:40:00  0.01564474
Qin_POINT293     01/01/2026  00:45:00  0.01296134
Qin_POINT293     01/01/2026  00:50:00  0.00922508
Qin_POINT293     01/01/2026  00:55:00  0.00616419
Qin_POINT293     01/01/2026  01:00:00  0.00412692
Qin_POINT293     01/01/2026  01:05:00  0.00277123
Qin_POINT293     01/01/2026  01:10:00  0.00175439
Qin_POINT293     01/01/2026  01:15:00  0.00073319
Qin_POINT293     01/01/2026  01:20:00  0.00023698
Qin_POINT293     01/01/2026  01:25:00  0.00004740
Qin_POINT293     01/01/2026  01:30:00  0.00000000
Qin_POINT293     01/01/2026  01:35:00  0.00000000
Qin_POINT293     01/01/2026  01:40:00  0.00000000
Qin_POINT293     01/01/2026  01:45:00  0.00000000
Qin_POINT293     01/01/2026  01:50:00  0.00000000
Qin_POINT293     01/01/2026  01:55:00  0.00000000
Qin_POINT293     01/01/2026  02:00:00  0.00000000
Qin_POINT293     01/01/2026  02:05:00  0.00000000
Qin_POINT293     01/01/2026  02:10:00  0.00000000
Qin_POINT293     01/01/2026  02:15:00  0.00000000
Qin_POINT293     01/01/2026  02:20:00  0.00000000
Qin_POINT293     01/01/2026  02:25:00  0.00000000
Qin_POINT293     01/01/2026  02:30:00  0.00000000
Qin_POINT293     01/01/2026  02:35:00  0.00000000
Qin_POINT293     01/01/2026  02:40:00  0.00000000
Qin_POINT293     01/01/2026  02:45:00  0.00000000
Qin_POINT293     01/01/2026  02:50:00  0.00000000
Qin_POINT293     01/01/2026  02:55:00  0.00000000
Qin_POINT293     01/01/2026  03:00:00  0.00000000
Qin_POINT294     01/01/2026  00:00:00  0.00000000
Qin_POINT294     01/01/2026  00:05:00  0.00023698
Qin_POINT294     01/01/2026  00:10:00  0.00061615
Qin_POINT294     01/01/2026  00:15:00  0.00127970
Qin_POINT294     01/01/2026  00:20:00  0.00224225
Qin_POINT294     01/01/2026  00:25:00  0.00472109
Qin_POINT294     01/01/2026  00:30:00  0.00782904
Qin_POINT294     01/01/2026  00:35:00  0.01175371
Qin_POINT294     01/01/2026  00:40:00  0.01564474
Qin_POINT294     01/01/2026  00:45:00  0.01296134
Qin_POINT294     01/01/2026  00:50:00  0.00922508
Qin_POINT294     01/01/2026  00:55:00  0.00616419
Qin_POINT294     01/01/2026  01:00:00  0.00412692
Qin_POINT294     01/01/2026  01:05:00  0.00277123
Qin_POINT294     01/01/2026  01:10:00  0.00175439
Qin_POINT294     01/01/2026  01:15:00  0.00073319
Qin_POINT294     01/01/2026  01:20:00  0.00023698
Qin_POINT294     01/01/2026  01:25:00  0.00004740
Qin_POINT294     01/01/2026  01:30:00  0.00000000
Qin_POINT294     01/01/2026  01:35:00  0.00000000
Qin_POINT294     01/01/2026  01:40:00  0.00000000
Qin_POINT294     01/01/2026  01:45:00  0.00000000
Qin_POINT294     01/01/2026  01:50:00  0.00000000
Qin_POINT294     01/01/2026  01:55:00  0.00000000
Qin_POINT294     01/01/2026  02:00:00  0.00000000
Qin_POINT294     01/01/2026  02:05:00  0.00000000
Qin_POINT294     01/01/2026  02:10:00  0.00000000
Qin_POINT294     01/01/2026  02:15:00  0.00000000
Qin_POINT294     01/01/2026  02:20:00  0.00000000
Qin_POINT294     01/01/2026  02:25:00  0.00000000
Qin_POINT294     01/01/2026  02:30:00  0.00000000
Qin_POINT294     01/01/2026  02:35:00  0.00000000
Qin_POINT294     01/01/2026  02:40:00  0.00000000
Qin_POINT294     01/01/2026  02:45:00  0.00000000
Qin_POINT294     01/01/2026  02:50:00  0.00000000
Qin_POINT294     01/01/2026  02:55:00  0.00000000
Qin_POINT294     01/01/2026  03:00:00  0.00000000
Qin_POINT296     01/01/2026  00:00:00  0.00000000
Qin_POINT296     01/01/2026  00:05:00  0.00023698
Qin_POINT296     01/01/2026  00:10:00  0.00061615
Qin_POINT296     01/01/2026  00:15:00  0.00127970
Qin_POINT296     01/01/2026  00:20:00  0.00224225
Qin_POINT296     01/01/2026  00:25:00  0.00472109
Qin_POINT296     01/01/2026  00:30:00  0.00782904
Qin_POINT296     01/01/2026  00:35:00  0.01175371
Qin_POINT296     01/01/2026  00:40:00  0.01564474
Qin_POINT296     01/01/2026  00:45:00  0.01296134
Qin_POINT296     01/01/2026  00:50:00  0.00922508
Qin_POINT296     01/01/2026  00:55:00  0.00616419
Qin_POINT296     01/01/2026  01:00:00  0.00412692
Qin_POINT296     01/01/2026  01:05:00  0.00277123
Qin_POINT296     01/01/2026  01:10:00  0.00175439
Qin_POINT296     01/01/2026  01:15:00  0.00073319
Qin_POINT296     01/01/2026  01:20:00  0.00023698
Qin_POINT296     01/01/2026  01:25:00  0.00004740
Qin_POINT296     01/01/2026  01:30:00  0.00000000
Qin_POINT296     01/01/2026  01:35:00  0.00000000
Qin_POINT296     01/01/2026  01:40:00  0.00000000
Qin_POINT296     01/01/2026  01:45:00  0.00000000
Qin_POINT296     01/01/2026  01:50:00  0.00000000
Qin_POINT296     01/01/2026  01:55:00  0.00000000
Qin_POINT296     01/01/2026  02:00:00  0.00000000
Qin_POINT296     01/01/2026  02:05:00  0.00000000
Qin_POINT296     01/01/2026  02:10:00  0.00000000
Qin_POINT296     01/01/2026  02:15:00  0.00000000
Qin_POINT296     01/01/2026  02:20:00  0.00000000
Qin_POINT296     01/01/2026  02:25:00  0.00000000
Qin_POINT296     01/01/2026  02:30:00  0.00000000
Qin_POINT296     01/01/2026  02:35:00  0.00000000
Qin_POINT296     01/01/2026  02:40:00  0.00000000
Qin_POINT296     01/01/2026  02:45:00  0.00000000
Qin_POINT296     01/01/2026  02:50:00  0.00000000
Qin_POINT296     01/01/2026  02:55:00  0.00000000
Qin_POINT296     01/01/2026  03:00:00  0.00000000
Qin_POINT297     01/01/2026  00:00:00  0.00000000
Qin_POINT297     01/01/2026  00:05:00  0.00023698
Qin_POINT297     01/01/2026  00:10:00  0.00061615
Qin_POINT297     01/01/2026  00:15:00  0.00127970
Qin_POINT297     01/01/2026  00:20:00  0.00224225
Qin_POINT297     01/01/2026  00:25:00  0.00472109
Qin_POINT297     01/01/2026  00:30:00  0.00782904
Qin_POINT297     01/01/2026  00:35:00  0.01175371
Qin_POINT297     01/01/2026  00:40:00  0.01564474
Qin_POINT297     01/01/2026  00:45:00  0.01296134
Qin_POINT297     01/01/2026  00:50:00  0.00922508
Qin_POINT297     01/01/2026  00:55:00  0.00616419
Qin_POINT297     01/01/2026  01:00:00  0.00412692
Qin_POINT297     01/01/2026  01:05:00  0.00277123
Qin_POINT297     01/01/2026  01:10:00  0.00175439
Qin_POINT297     01/01/2026  01:15:00  0.00073319
Qin_POINT297     01/01/2026  01:20:00  0.00023698
Qin_POINT297     01/01/2026  01:25:00  0.00004740
Qin_POINT297     01/01/2026  01:30:00  0.00000000
Qin_POINT297     01/01/2026  01:35:00  0.00000000
Qin_POINT297     01/01/2026  01:40:00  0.00000000
Qin_POINT297     01/01/2026  01:45:00  0.00000000
Qin_POINT297     01/01/2026  01:50:00  0.00000000
Qin_POINT297     01/01/2026  01:55:00  0.00000000
Qin_POINT297     01/01/2026  02:00:00  0.00000000
Qin_POINT297     01/01/2026  02:05:00  0.00000000
Qin_POINT297     01/01/2026  02:10:00  0.00000000
Qin_POINT297     01/01/2026  02:15:00  0.00000000
Qin_POINT297     01/01/2026  02:20:00  0.00000000
Qin_POINT297     01/01/2026  02:25:00  0.00000000
Qin_POINT297     01/01/2026  02:30:00  0.00000000
Qin_POINT297     01/01/2026  02:35:00  0.00000000
Qin_POINT297     01/01/2026  02:40:00  0.00000000
Qin_POINT297     01/01/2026  02:45:00  0.00000000
Qin_POINT297     01/01/2026  02:50:00  0.00000000
Qin_POINT297     01/01/2026  02:55:00  0.00000000
Qin_POINT297     01/01/2026  03:00:00  0.00000000
Qin_POINT299     01/01/2026  00:00:00  0.00000000
Qin_POINT299     01/01/2026  00:05:00  0.00023698
Qin_POINT299     01/01/2026  00:10:00  0.00061615
Qin_POINT299     01/01/2026  00:15:00  0.00127970
Qin_POINT299     01/01/2026  00:20:00  0.00224225
Qin_POINT299     01/01/2026  00:25:00  0.00472109
Qin_POINT299     01/01/2026  00:30:00  0.00782904
Qin_POINT299     01/01/2026  00:35:00  0.01175371
Qin_POINT299     01/01/2026  00:40:00  0.01564474
Qin_POINT299     01/01/2026  00:45:00  0.01296134
Qin_POINT299     01/01/2026  00:50:00  0.00922508
Qin_POINT299     01/01/2026  00:55:00  0.00616419
Qin_POINT299     01/01/2026  01:00:00  0.00412692
Qin_POINT299     01/01/2026  01:05:00  0.00277123
Qin_POINT299     01/01/2026  01:10:00  0.00175439
Qin_POINT299     01/01/2026  01:15:00  0.00073319
Qin_POINT299     01/01/2026  01:20:00  0.00023698
Qin_POINT299     01/01/2026  01:25:00  0.00004740
Qin_POINT299     01/01/2026  01:30:00  0.00000000
Qin_POINT299     01/01/2026  01:35:00  0.00000000
Qin_POINT299     01/01/2026  01:40:00  0.00000000
Qin_POINT299     01/01/2026  01:45:00  0.00000000
Qin_POINT299     01/01/2026  01:50:00  0.00000000
Qin_POINT299     01/01/2026  01:55:00  0.00000000
Qin_POINT299     01/01/2026  02:00:00  0.00000000
Qin_POINT299     01/01/2026  02:05:00  0.00000000
Qin_POINT299     01/01/2026  02:10:00  0.00000000
Qin_POINT299     01/01/2026  02:15:00  0.00000000
Qin_POINT299     01/01/2026  02:20:00  0.00000000
Qin_POINT299     01/01/2026  02:25:00  0.00000000
Qin_POINT299     01/01/2026  02:30:00  0.00000000
Qin_POINT299     01/01/2026  02:35:00  0.00000000
Qin_POINT299     01/01/2026  02:40:00  0.00000000
Qin_POINT299     01/01/2026  02:45:00  0.00000000
Qin_POINT299     01/01/2026  02:50:00  0.00000000
Qin_POINT299     01/01/2026  02:55:00  0.00000000
Qin_POINT299     01/01/2026  03:00:00  0.00000000
Qin_POINT300     01/01/2026  00:00:00  0.00000000
Qin_POINT300     01/01/2026  00:05:00  0.00023698
Qin_POINT300     01/01/2026  00:10:00  0.00061615
Qin_POINT300     01/01/2026  00:15:00  0.00127970
Qin_POINT300     01/01/2026  00:20:00  0.00224225
Qin_POINT300     01/01/2026  00:25:00  0.00472109
Qin_POINT300     01/01/2026  00:30:00  0.00782904
Qin_POINT300     01/01/2026  00:35:00  0.01175371
Qin_POINT300     01/01/2026  00:40:00  0.01564474
Qin_POINT300     01/01/2026  00:45:00  0.01296134
Qin_POINT300     01/01/2026  00:50:00  0.00922508
Qin_POINT300     01/01/2026  00:55:00  0.00616419
Qin_POINT300     01/01/2026  01:00:00  0.00412692
Qin_POINT300     01/01/2026  01:05:00  0.00277123
Qin_POINT300     01/01/2026  01:10:00  0.00175439
Qin_POINT300     01/01/2026  01:15:00  0.00073319
Qin_POINT300     01/01/2026  01:20:00  0.00023698
Qin_POINT300     01/01/2026  01:25:00  0.00004740
Qin_POINT300     01/01/2026  01:30:00  0.00000000
Qin_POINT300     01/01/2026  01:35:00  0.00000000
Qin_POINT300     01/01/2026  01:40:00  0.00000000
Qin_POINT300     01/01/2026  01:45:00  0.00000000
Qin_POINT300     01/01/2026  01:50:00  0.00000000
Qin_POINT300     01/01/2026  01:55:00  0.00000000
Qin_POINT300     01/01/2026  02:00:00  0.00000000
Qin_POINT300     01/01/2026  02:05:00  0.00000000
Qin_POINT300     01/01/2026  02:10:00  0.00000000
Qin_POINT300     01/01/2026  02:15:00  0.00000000
Qin_POINT300     01/01/2026  02:20:00  0.00000000
Qin_POINT300     01/01/2026  02:25:00  0.00000000
Qin_POINT300     01/01/2026  02:30:00  0.00000000
Qin_POINT300     01/01/2026  02:35:00  0.00000000
Qin_POINT300     01/01/2026  02:40:00  0.00000000
Qin_POINT300     01/01/2026  02:45:00  0.00000000
Qin_POINT300     01/01/2026  02:50:00  0.00000000
Qin_POINT300     01/01/2026  02:55:00  0.00000000
Qin_POINT300     01/01/2026  03:00:00  0.00000000
Qin_POINT302     01/01/2026  00:00:00  0.00000000
Qin_POINT302     01/01/2026  00:05:00  0.00023698
Qin_POINT302     01/01/2026  00:10:00  0.00061615
Qin_POINT302     01/01/2026  00:15:00  0.00127970
Qin_POINT302     01/01/2026  00:20:00  0.00224225
Qin_POINT302     01/01/2026  00:25:00  0.00472109
Qin_POINT302     01/01/2026  00:30:00  0.00782904
Qin_POINT302     01/01/2026  00:35:00  0.01175371
Qin_POINT302     01/01/2026  00:40:00  0.01564474
Qin_POINT302     01/01/2026  00:45:00  0.01296134
Qin_POINT302     01/01/2026  00:50:00  0.00922508
Qin_POINT302     01/01/2026  00:55:00  0.00616419
Qin_POINT302     01/01/2026  01:00:00  0.00412692
Qin_POINT302     01/01/2026  01:05:00  0.00277123
Qin_POINT302     01/01/2026  01:10:00  0.00175439
Qin_POINT302     01/01/2026  01:15:00  0.00073319
Qin_POINT302     01/01/2026  01:20:00  0.00023698
Qin_POINT302     01/01/2026  01:25:00  0.00004740
Qin_POINT302     01/01/2026  01:30:00  0.00000000
Qin_POINT302     01/01/2026  01:35:00  0.00000000
Qin_POINT302     01/01/2026  01:40:00  0.00000000
Qin_POINT302     01/01/2026  01:45:00  0.00000000
Qin_POINT302     01/01/2026  01:50:00  0.00000000
Qin_POINT302     01/01/2026  01:55:00  0.00000000
Qin_POINT302     01/01/2026  02:00:00  0.00000000
Qin_POINT302     01/01/2026  02:05:00  0.00000000
Qin_POINT302     01/01/2026  02:10:00  0.00000000
Qin_POINT302     01/01/2026  02:15:00  0.00000000
Qin_POINT302     01/01/2026  02:20:00  0.00000000
Qin_POINT302     01/01/2026  02:25:00  0.00000000
Qin_POINT302     01/01/2026  02:30:00  0.00000000
Qin_POINT302     01/01/2026  02:35:00  0.00000000
Qin_POINT302     01/01/2026  02:40:00  0.00000000
Qin_POINT302     01/01/2026  02:45:00  0.00000000
Qin_POINT302     01/01/2026  02:50:00  0.00000000
Qin_POINT302     01/01/2026  02:55:00  0.00000000
Qin_POINT302     01/01/2026  03:00:00  0.00000000
Qin_POINT303     01/01/2026  00:00:00  0.00000000
Qin_POINT303     01/01/2026  00:05:00  0.00023698
Qin_POINT303     01/01/2026  00:10:00  0.00061615
Qin_POINT303     01/01/2026  00:15:00  0.00127970
Qin_POINT303     01/01/2026  00:20:00  0.00224225
Qin_POINT303     01/01/2026  00:25:00  0.00472109
Qin_POINT303     01/01/2026  00:30:00  0.00782904
Qin_POINT303     01/01/2026  00:35:00  0.01175371
Qin_POINT303     01/01/2026  00:40:00  0.01564474
Qin_POINT303     01/01/2026  00:45:00  0.01296134
Qin_POINT303     01/01/2026  00:50:00  0.00922508
Qin_POINT303     01/01/2026  00:55:00  0.00616419
Qin_POINT303     01/01/2026  01:00:00  0.00412692
Qin_POINT303     01/01/2026  01:05:00  0.00277123
Qin_POINT303     01/01/2026  01:10:00  0.00175439
Qin_POINT303     01/01/2026  01:15:00  0.00073319
Qin_POINT303     01/01/2026  01:20:00  0.00023698
Qin_POINT303     01/01/2026  01:25:00  0.00004740
Qin_POINT303     01/01/2026  01:30:00  0.00000000
Qin_POINT303     01/01/2026  01:35:00  0.00000000
Qin_POINT303     01/01/2026  01:40:00  0.00000000
Qin_POINT303     01/01/2026  01:45:00  0.00000000
Qin_POINT303     01/01/2026  01:50:00  0.00000000
Qin_POINT303     01/01/2026  01:55:00  0.00000000
Qin_POINT303     01/01/2026  02:00:00  0.00000000
Qin_POINT303     01/01/2026  02:05:00  0.00000000
Qin_POINT303     01/01/2026  02:10:00  0.00000000
Qin_POINT303     01/01/2026  02:15:00  0.00000000
Qin_POINT303     01/01/2026  02:20:00  0.00000000
Qin_POINT303     01/01/2026  02:25:00  0.00000000
Qin_POINT303     01/01/2026  02:30:00  0.00000000
Qin_POINT303     01/01/2026  02:35:00  0.00000000
Qin_POINT303     01/01/2026  02:40:00  0.00000000
Qin_POINT303     01/01/2026  02:45:00  0.00000000
Qin_POINT303     01/01/2026  02:50:00  0.00000000
Qin_POINT303     01/01/2026  02:55:00  0.00000000
Qin_POINT303     01/01/2026  03:00:00  0.00000000
Qin_POINT304     01/01/2026  00:00:00  0.00000000
Qin_POINT304     01/01/2026  00:05:00  0.00023698
Qin_POINT304     01/01/2026  00:10:00  0.00061615
Qin_POINT304     01/01/2026  00:15:00  0.00127970
Qin_POINT304     01/01/2026  00:20:00  0.00224225
Qin_POINT304     01/01/2026  00:25:00  0.00472109
Qin_POINT304     01/01/2026  00:30:00  0.00782904
Qin_POINT304     01/01/2026  00:35:00  0.01175371
Qin_POINT304     01/01/2026  00:40:00  0.01564474
Qin_POINT304     01/01/2026  00:45:00  0.01296134
Qin_POINT304     01/01/2026  00:50:00  0.00922508
Qin_POINT304     01/01/2026  00:55:00  0.00616419
Qin_POINT304     01/01/2026  01:00:00  0.00412692
Qin_POINT304     01/01/2026  01:05:00  0.00277123
Qin_POINT304     01/01/2026  01:10:00  0.00175439
Qin_POINT304     01/01/2026  01:15:00  0.00073319
Qin_POINT304     01/01/2026  01:20:00  0.00023698
Qin_POINT304     01/01/2026  01:25:00  0.00004740
Qin_POINT304     01/01/2026  01:30:00  0.00000000
Qin_POINT304     01/01/2026  01:35:00  0.00000000
Qin_POINT304     01/01/2026  01:40:00  0.00000000
Qin_POINT304     01/01/2026  01:45:00  0.00000000
Qin_POINT304     01/01/2026  01:50:00  0.00000000
Qin_POINT304     01/01/2026  01:55:00  0.00000000
Qin_POINT304     01/01/2026  02:00:00  0.00000000
Qin_POINT304     01/01/2026  02:05:00  0.00000000
Qin_POINT304     01/01/2026  02:10:00  0.00000000
Qin_POINT304     01/01/2026  02:15:00  0.00000000
Qin_POINT304     01/01/2026  02:20:00  0.00000000
Qin_POINT304     01/01/2026  02:25:00  0.00000000
Qin_POINT304     01/01/2026  02:30:00  0.00000000
Qin_POINT304     01/01/2026  02:35:00  0.00000000
Qin_POINT304     01/01/2026  02:40:00  0.00000000
Qin_POINT304     01/01/2026  02:45:00  0.00000000
Qin_POINT304     01/01/2026  02:50:00  0.00000000
Qin_POINT304     01/01/2026  02:55:00  0.00000000
Qin_POINT304     01/01/2026  03:00:00  0.00000000
Qin_POINT305     01/01/2026  00:00:00  0.00000000
Qin_POINT305     01/01/2026  00:05:00  0.00023698
Qin_POINT305     01/01/2026  00:10:00  0.00061615
Qin_POINT305     01/01/2026  00:15:00  0.00127970
Qin_POINT305     01/01/2026  00:20:00  0.00224225
Qin_POINT305     01/01/2026  00:25:00  0.00472109
Qin_POINT305     01/01/2026  00:30:00  0.00782904
Qin_POINT305     01/01/2026  00:35:00  0.01175371
Qin_POINT305     01/01/2026  00:40:00  0.01564474
Qin_POINT305     01/01/2026  00:45:00  0.01296134
Qin_POINT305     01/01/2026  00:50:00  0.00922508
Qin_POINT305     01/01/2026  00:55:00  0.00616419
Qin_POINT305     01/01/2026  01:00:00  0.00412692
Qin_POINT305     01/01/2026  01:05:00  0.00277123
Qin_POINT305     01/01/2026  01:10:00  0.00175439
Qin_POINT305     01/01/2026  01:15:00  0.00073319
Qin_POINT305     01/01/2026  01:20:00  0.00023698
Qin_POINT305     01/01/2026  01:25:00  0.00004740
Qin_POINT305     01/01/2026  01:30:00  0.00000000
Qin_POINT305     01/01/2026  01:35:00  0.00000000
Qin_POINT305     01/01/2026  01:40:00  0.00000000
Qin_POINT305     01/01/2026  01:45:00  0.00000000
Qin_POINT305     01/01/2026  01:50:00  0.00000000
Qin_POINT305     01/01/2026  01:55:00  0.00000000
Qin_POINT305     01/01/2026  02:00:00  0.00000000
Qin_POINT305     01/01/2026  02:05:00  0.00000000
Qin_POINT305     01/01/2026  02:10:00  0.00000000
Qin_POINT305     01/01/2026  02:15:00  0.00000000
Qin_POINT305     01/01/2026  02:20:00  0.00000000
Qin_POINT305     01/01/2026  02:25:00  0.00000000
Qin_POINT305     01/01/2026  02:30:00  0.00000000
Qin_POINT305     01/01/2026  02:35:00  0.00000000
Qin_POINT305     01/01/2026  02:40:00  0.00000000
Qin_POINT305     01/01/2026  02:45:00  0.00000000
Qin_POINT305     01/01/2026  02:50:00  0.00000000
Qin_POINT305     01/01/2026  02:55:00  0.00000000
Qin_POINT305     01/01/2026  03:00:00  0.00000000
Qin_POINT306     01/01/2026  00:00:00  0.00000000
Qin_POINT306     01/01/2026  00:05:00  0.00023698
Qin_POINT306     01/01/2026  00:10:00  0.00061615
Qin_POINT306     01/01/2026  00:15:00  0.00127970
Qin_POINT306     01/01/2026  00:20:00  0.00224225
Qin_POINT306     01/01/2026  00:25:00  0.00472109
Qin_POINT306     01/01/2026  00:30:00  0.00782904
Qin_POINT306     01/01/2026  00:35:00  0.01175371
Qin_POINT306     01/01/2026  00:40:00  0.01564474
Qin_POINT306     01/01/2026  00:45:00  0.01296134
Qin_POINT306     01/01/2026  00:50:00  0.00922508
Qin_POINT306     01/01/2026  00:55:00  0.00616419
Qin_POINT306     01/01/2026  01:00:00  0.00412692
Qin_POINT306     01/01/2026  01:05:00  0.00277123
Qin_POINT306     01/01/2026  01:10:00  0.00175439
Qin_POINT306     01/01/2026  01:15:00  0.00073319
Qin_POINT306     01/01/2026  01:20:00  0.00023698
Qin_POINT306     01/01/2026  01:25:00  0.00004740
Qin_POINT306     01/01/2026  01:30:00  0.00000000
Qin_POINT306     01/01/2026  01:35:00  0.00000000
Qin_POINT306     01/01/2026  01:40:00  0.00000000
Qin_POINT306     01/01/2026  01:45:00  0.00000000
Qin_POINT306     01/01/2026  01:50:00  0.00000000
Qin_POINT306     01/01/2026  01:55:00  0.00000000
Qin_POINT306     01/01/2026  02:00:00  0.00000000
Qin_POINT306     01/01/2026  02:05:00  0.00000000
Qin_POINT306     01/01/2026  02:10:00  0.00000000
Qin_POINT306     01/01/2026  02:15:00  0.00000000
Qin_POINT306     01/01/2026  02:20:00  0.00000000
Qin_POINT306     01/01/2026  02:25:00  0.00000000
Qin_POINT306     01/01/2026  02:30:00  0.00000000
Qin_POINT306     01/01/2026  02:35:00  0.00000000
Qin_POINT306     01/01/2026  02:40:00  0.00000000
Qin_POINT306     01/01/2026  02:45:00  0.00000000
Qin_POINT306     01/01/2026  02:50:00  0.00000000
Qin_POINT306     01/01/2026  02:55:00  0.00000000
Qin_POINT306     01/01/2026  03:00:00  0.00000000
Qin_POINT307     01/01/2026  00:00:00  0.00000000
Qin_POINT307     01/01/2026  00:05:00  0.00023698
Qin_POINT307     01/01/2026  00:10:00  0.00061615
Qin_POINT307     01/01/2026  00:15:00  0.00127970
Qin_POINT307     01/01/2026  00:20:00  0.00224225
Qin_POINT307     01/01/2026  00:25:00  0.00472109
Qin_POINT307     01/01/2026  00:30:00  0.00782904
Qin_POINT307     01/01/2026  00:35:00  0.01175371
Qin_POINT307     01/01/2026  00:40:00  0.01564474
Qin_POINT307     01/01/2026  00:45:00  0.01296134
Qin_POINT307     01/01/2026  00:50:00  0.00922508
Qin_POINT307     01/01/2026  00:55:00  0.00616419
Qin_POINT307     01/01/2026  01:00:00  0.00412692
Qin_POINT307     01/01/2026  01:05:00  0.00277123
Qin_POINT307     01/01/2026  01:10:00  0.00175439
Qin_POINT307     01/01/2026  01:15:00  0.00073319
Qin_POINT307     01/01/2026  01:20:00  0.00023698
Qin_POINT307     01/01/2026  01:25:00  0.00004740
Qin_POINT307     01/01/2026  01:30:00  0.00000000
Qin_POINT307     01/01/2026  01:35:00  0.00000000
Qin_POINT307     01/01/2026  01:40:00  0.00000000
Qin_POINT307     01/01/2026  01:45:00  0.00000000
Qin_POINT307     01/01/2026  01:50:00  0.00000000
Qin_POINT307     01/01/2026  01:55:00  0.00000000
Qin_POINT307     01/01/2026  02:00:00  0.00000000
Qin_POINT307     01/01/2026  02:05:00  0.00000000
Qin_POINT307     01/01/2026  02:10:00  0.00000000
Qin_POINT307     01/01/2026  02:15:00  0.00000000
Qin_POINT307     01/01/2026  02:20:00  0.00000000
Qin_POINT307     01/01/2026  02:25:00  0.00000000
Qin_POINT307     01/01/2026  02:30:00  0.00000000
Qin_POINT307     01/01/2026  02:35:00  0.00000000
Qin_POINT307     01/01/2026  02:40:00  0.00000000
Qin_POINT307     01/01/2026  02:45:00  0.00000000
Qin_POINT307     01/01/2026  02:50:00  0.00000000
Qin_POINT307     01/01/2026  02:55:00  0.00000000
Qin_POINT307     01/01/2026  03:00:00  0.00000000
Qin_POINT309     01/01/2026  00:00:00  0.00000000
Qin_POINT309     01/01/2026  00:05:00  0.00023698
Qin_POINT309     01/01/2026  00:10:00  0.00061615
Qin_POINT309     01/01/2026  00:15:00  0.00127970
Qin_POINT309     01/01/2026  00:20:00  0.00224225
Qin_POINT309     01/01/2026  00:25:00  0.00472109
Qin_POINT309     01/01/2026  00:30:00  0.00782904
Qin_POINT309     01/01/2026  00:35:00  0.01175371
Qin_POINT309     01/01/2026  00:40:00  0.01564474
Qin_POINT309     01/01/2026  00:45:00  0.01296134
Qin_POINT309     01/01/2026  00:50:00  0.00922508
Qin_POINT309     01/01/2026  00:55:00  0.00616419
Qin_POINT309     01/01/2026  01:00:00  0.00412692
Qin_POINT309     01/01/2026  01:05:00  0.00277123
Qin_POINT309     01/01/2026  01:10:00  0.00175439
Qin_POINT309     01/01/2026  01:15:00  0.00073319
Qin_POINT309     01/01/2026  01:20:00  0.00023698
Qin_POINT309     01/01/2026  01:25:00  0.00004740
Qin_POINT309     01/01/2026  01:30:00  0.00000000
Qin_POINT309     01/01/2026  01:35:00  0.00000000
Qin_POINT309     01/01/2026  01:40:00  0.00000000
Qin_POINT309     01/01/2026  01:45:00  0.00000000
Qin_POINT309     01/01/2026  01:50:00  0.00000000
Qin_POINT309     01/01/2026  01:55:00  0.00000000
Qin_POINT309     01/01/2026  02:00:00  0.00000000
Qin_POINT309     01/01/2026  02:05:00  0.00000000
Qin_POINT309     01/01/2026  02:10:00  0.00000000
Qin_POINT309     01/01/2026  02:15:00  0.00000000
Qin_POINT309     01/01/2026  02:20:00  0.00000000
Qin_POINT309     01/01/2026  02:25:00  0.00000000
Qin_POINT309     01/01/2026  02:30:00  0.00000000
Qin_POINT309     01/01/2026  02:35:00  0.00000000
Qin_POINT309     01/01/2026  02:40:00  0.00000000
Qin_POINT309     01/01/2026  02:45:00  0.00000000
Qin_POINT309     01/01/2026  02:50:00  0.00000000
Qin_POINT309     01/01/2026  02:55:00  0.00000000
Qin_POINT309     01/01/2026  03:00:00  0.00000000
Qin_POINT311     01/01/2026  00:00:00  0.00000000
Qin_POINT311     01/01/2026  00:05:00  0.00023698
Qin_POINT311     01/01/2026  00:10:00  0.00061615
Qin_POINT311     01/01/2026  00:15:00  0.00127970
Qin_POINT311     01/01/2026  00:20:00  0.00224225
Qin_POINT311     01/01/2026  00:25:00  0.00472109
Qin_POINT311     01/01/2026  00:30:00  0.00782904
Qin_POINT311     01/01/2026  00:35:00  0.01175371
Qin_POINT311     01/01/2026  00:40:00  0.01564474
Qin_POINT311     01/01/2026  00:45:00  0.01296134
Qin_POINT311     01/01/2026  00:50:00  0.00922508
Qin_POINT311     01/01/2026  00:55:00  0.00616419
Qin_POINT311     01/01/2026  01:00:00  0.00412692
Qin_POINT311     01/01/2026  01:05:00  0.00277123
Qin_POINT311     01/01/2026  01:10:00  0.00175439
Qin_POINT311     01/01/2026  01:15:00  0.00073319
Qin_POINT311     01/01/2026  01:20:00  0.00023698
Qin_POINT311     01/01/2026  01:25:00  0.00004740
Qin_POINT311     01/01/2026  01:30:00  0.00000000
Qin_POINT311     01/01/2026  01:35:00  0.00000000
Qin_POINT311     01/01/2026  01:40:00  0.00000000
Qin_POINT311     01/01/2026  01:45:00  0.00000000
Qin_POINT311     01/01/2026  01:50:00  0.00000000
Qin_POINT311     01/01/2026  01:55:00  0.00000000
Qin_POINT311     01/01/2026  02:00:00  0.00000000
Qin_POINT311     01/01/2026  02:05:00  0.00000000
Qin_POINT311     01/01/2026  02:10:00  0.00000000
Qin_POINT311     01/01/2026  02:15:00  0.00000000
Qin_POINT311     01/01/2026  02:20:00  0.00000000
Qin_POINT311     01/01/2026  02:25:00  0.00000000
Qin_POINT311     01/01/2026  02:30:00  0.00000000
Qin_POINT311     01/01/2026  02:35:00  0.00000000
Qin_POINT311     01/01/2026  02:40:00  0.00000000
Qin_POINT311     01/01/2026  02:45:00  0.00000000
Qin_POINT311     01/01/2026  02:50:00  0.00000000
Qin_POINT311     01/01/2026  02:55:00  0.00000000
Qin_POINT311     01/01/2026  03:00:00  0.00000000
Qin_POINT312     01/01/2026  00:00:00  0.00000000
Qin_POINT312     01/01/2026  00:05:00  0.00023698
Qin_POINT312     01/01/2026  00:10:00  0.00061615
Qin_POINT312     01/01/2026  00:15:00  0.00127970
Qin_POINT312     01/01/2026  00:20:00  0.00224225
Qin_POINT312     01/01/2026  00:25:00  0.00472109
Qin_POINT312     01/01/2026  00:30:00  0.00782904
Qin_POINT312     01/01/2026  00:35:00  0.01175371
Qin_POINT312     01/01/2026  00:40:00  0.01564474
Qin_POINT312     01/01/2026  00:45:00  0.01296134
Qin_POINT312     01/01/2026  00:50:00  0.00922508
Qin_POINT312     01/01/2026  00:55:00  0.00616419
Qin_POINT312     01/01/2026  01:00:00  0.00412692
Qin_POINT312     01/01/2026  01:05:00  0.00277123
Qin_POINT312     01/01/2026  01:10:00  0.00175439
Qin_POINT312     01/01/2026  01:15:00  0.00073319
Qin_POINT312     01/01/2026  01:20:00  0.00023698
Qin_POINT312     01/01/2026  01:25:00  0.00004740
Qin_POINT312     01/01/2026  01:30:00  0.00000000
Qin_POINT312     01/01/2026  01:35:00  0.00000000
Qin_POINT312     01/01/2026  01:40:00  0.00000000
Qin_POINT312     01/01/2026  01:45:00  0.00000000
Qin_POINT312     01/01/2026  01:50:00  0.00000000
Qin_POINT312     01/01/2026  01:55:00  0.00000000
Qin_POINT312     01/01/2026  02:00:00  0.00000000
Qin_POINT312     01/01/2026  02:05:00  0.00000000
Qin_POINT312     01/01/2026  02:10:00  0.00000000
Qin_POINT312     01/01/2026  02:15:00  0.00000000
Qin_POINT312     01/01/2026  02:20:00  0.00000000
Qin_POINT312     01/01/2026  02:25:00  0.00000000
Qin_POINT312     01/01/2026  02:30:00  0.00000000
Qin_POINT312     01/01/2026  02:35:00  0.00000000
Qin_POINT312     01/01/2026  02:40:00  0.00000000
Qin_POINT312     01/01/2026  02:45:00  0.00000000
Qin_POINT312     01/01/2026  02:50:00  0.00000000
Qin_POINT312     01/01/2026  02:55:00  0.00000000
Qin_POINT312     01/01/2026  03:00:00  0.00000000
Qin_POINT313     01/01/2026  00:00:00  0.00000000
Qin_POINT313     01/01/2026  00:05:00  0.00023698
Qin_POINT313     01/01/2026  00:10:00  0.00061615
Qin_POINT313     01/01/2026  00:15:00  0.00127970
Qin_POINT313     01/01/2026  00:20:00  0.00224225
Qin_POINT313     01/01/2026  00:25:00  0.00472109
Qin_POINT313     01/01/2026  00:30:00  0.00782904
Qin_POINT313     01/01/2026  00:35:00  0.01175371
Qin_POINT313     01/01/2026  00:40:00  0.01564474
Qin_POINT313     01/01/2026  00:45:00  0.01296134
Qin_POINT313     01/01/2026  00:50:00  0.00922508
Qin_POINT313     01/01/2026  00:55:00  0.00616419
Qin_POINT313     01/01/2026  01:00:00  0.00412692
Qin_POINT313     01/01/2026  01:05:00  0.00277123
Qin_POINT313     01/01/2026  01:10:00  0.00175439
Qin_POINT313     01/01/2026  01:15:00  0.00073319
Qin_POINT313     01/01/2026  01:20:00  0.00023698
Qin_POINT313     01/01/2026  01:25:00  0.00004740
Qin_POINT313     01/01/2026  01:30:00  0.00000000
Qin_POINT313     01/01/2026  01:35:00  0.00000000
Qin_POINT313     01/01/2026  01:40:00  0.00000000
Qin_POINT313     01/01/2026  01:45:00  0.00000000
Qin_POINT313     01/01/2026  01:50:00  0.00000000
Qin_POINT313     01/01/2026  01:55:00  0.00000000
Qin_POINT313     01/01/2026  02:00:00  0.00000000
Qin_POINT313     01/01/2026  02:05:00  0.00000000
Qin_POINT313     01/01/2026  02:10:00  0.00000000
Qin_POINT313     01/01/2026  02:15:00  0.00000000
Qin_POINT313     01/01/2026  02:20:00  0.00000000
Qin_POINT313     01/01/2026  02:25:00  0.00000000
Qin_POINT313     01/01/2026  02:30:00  0.00000000
Qin_POINT313     01/01/2026  02:35:00  0.00000000
Qin_POINT313     01/01/2026  02:40:00  0.00000000
Qin_POINT313     01/01/2026  02:45:00  0.00000000
Qin_POINT313     01/01/2026  02:50:00  0.00000000
Qin_POINT313     01/01/2026  02:55:00  0.00000000
Qin_POINT313     01/01/2026  03:00:00  0.00000000
Qin_POINT315     01/01/2026  00:00:00  0.00000000
Qin_POINT315     01/01/2026  00:05:00  0.00023698
Qin_POINT315     01/01/2026  00:10:00  0.00061615
Qin_POINT315     01/01/2026  00:15:00  0.00127970
Qin_POINT315     01/01/2026  00:20:00  0.00224225
Qin_POINT315     01/01/2026  00:25:00  0.00472109
Qin_POINT315     01/01/2026  00:30:00  0.00782904
Qin_POINT315     01/01/2026  00:35:00  0.01175371
Qin_POINT315     01/01/2026  00:40:00  0.01564474
Qin_POINT315     01/01/2026  00:45:00  0.01296134
Qin_POINT315     01/01/2026  00:50:00  0.00922508
Qin_POINT315     01/01/2026  00:55:00  0.00616419
Qin_POINT315     01/01/2026  01:00:00  0.00412692
Qin_POINT315     01/01/2026  01:05:00  0.00277123
Qin_POINT315     01/01/2026  01:10:00  0.00175439
Qin_POINT315     01/01/2026  01:15:00  0.00073319
Qin_POINT315     01/01/2026  01:20:00  0.00023698
Qin_POINT315     01/01/2026  01:25:00  0.00004740
Qin_POINT315     01/01/2026  01:30:00  0.00000000
Qin_POINT315     01/01/2026  01:35:00  0.00000000
Qin_POINT315     01/01/2026  01:40:00  0.00000000
Qin_POINT315     01/01/2026  01:45:00  0.00000000
Qin_POINT315     01/01/2026  01:50:00  0.00000000
Qin_POINT315     01/01/2026  01:55:00  0.00000000
Qin_POINT315     01/01/2026  02:00:00  0.00000000
Qin_POINT315     01/01/2026  02:05:00  0.00000000
Qin_POINT315     01/01/2026  02:10:00  0.00000000
Qin_POINT315     01/01/2026  02:15:00  0.00000000
Qin_POINT315     01/01/2026  02:20:00  0.00000000
Qin_POINT315     01/01/2026  02:25:00  0.00000000
Qin_POINT315     01/01/2026  02:30:00  0.00000000
Qin_POINT315     01/01/2026  02:35:00  0.00000000
Qin_POINT315     01/01/2026  02:40:00  0.00000000
Qin_POINT315     01/01/2026  02:45:00  0.00000000
Qin_POINT315     01/01/2026  02:50:00  0.00000000
Qin_POINT315     01/01/2026  02:55:00  0.00000000
Qin_POINT315     01/01/2026  03:00:00  0.00000000
Qin_POINT316     01/01/2026  00:00:00  0.00000000
Qin_POINT316     01/01/2026  00:05:00  0.00023698
Qin_POINT316     01/01/2026  00:10:00  0.00061615
Qin_POINT316     01/01/2026  00:15:00  0.00127970
Qin_POINT316     01/01/2026  00:20:00  0.00224225
Qin_POINT316     01/01/2026  00:25:00  0.00472109
Qin_POINT316     01/01/2026  00:30:00  0.00782904
Qin_POINT316     01/01/2026  00:35:00  0.01175371
Qin_POINT316     01/01/2026  00:40:00  0.01564474
Qin_POINT316     01/01/2026  00:45:00  0.01296134
Qin_POINT316     01/01/2026  00:50:00  0.00922508
Qin_POINT316     01/01/2026  00:55:00  0.00616419
Qin_POINT316     01/01/2026  01:00:00  0.00412692
Qin_POINT316     01/01/2026  01:05:00  0.00277123
Qin_POINT316     01/01/2026  01:10:00  0.00175439
Qin_POINT316     01/01/2026  01:15:00  0.00073319
Qin_POINT316     01/01/2026  01:20:00  0.00023698
Qin_POINT316     01/01/2026  01:25:00  0.00004740
Qin_POINT316     01/01/2026  01:30:00  0.00000000
Qin_POINT316     01/01/2026  01:35:00  0.00000000
Qin_POINT316     01/01/2026  01:40:00  0.00000000
Qin_POINT316     01/01/2026  01:45:00  0.00000000
Qin_POINT316     01/01/2026  01:50:00  0.00000000
Qin_POINT316     01/01/2026  01:55:00  0.00000000
Qin_POINT316     01/01/2026  02:00:00  0.00000000
Qin_POINT316     01/01/2026  02:05:00  0.00000000
Qin_POINT316     01/01/2026  02:10:00  0.00000000
Qin_POINT316     01/01/2026  02:15:00  0.00000000
Qin_POINT316     01/01/2026  02:20:00  0.00000000
Qin_POINT316     01/01/2026  02:25:00  0.00000000
Qin_POINT316     01/01/2026  02:30:00  0.00000000
Qin_POINT316     01/01/2026  02:35:00  0.00000000
Qin_POINT316     01/01/2026  02:40:00  0.00000000
Qin_POINT316     01/01/2026  02:45:00  0.00000000
Qin_POINT316     01/01/2026  02:50:00  0.00000000
Qin_POINT316     01/01/2026  02:55:00  0.00000000
Qin_POINT316     01/01/2026  03:00:00  0.00000000
Qin_POINT317     01/01/2026  00:00:00  0.00000000
Qin_POINT317     01/01/2026  00:05:00  0.00023698
Qin_POINT317     01/01/2026  00:10:00  0.00061615
Qin_POINT317     01/01/2026  00:15:00  0.00127970
Qin_POINT317     01/01/2026  00:20:00  0.00224225
Qin_POINT317     01/01/2026  00:25:00  0.00472109
Qin_POINT317     01/01/2026  00:30:00  0.00782904
Qin_POINT317     01/01/2026  00:35:00  0.01175371
Qin_POINT317     01/01/2026  00:40:00  0.01564474
Qin_POINT317     01/01/2026  00:45:00  0.01296134
Qin_POINT317     01/01/2026  00:50:00  0.00922508
Qin_POINT317     01/01/2026  00:55:00  0.00616419
Qin_POINT317     01/01/2026  01:00:00  0.00412692
Qin_POINT317     01/01/2026  01:05:00  0.00277123
Qin_POINT317     01/01/2026  01:10:00  0.00175439
Qin_POINT317     01/01/2026  01:15:00  0.00073319
Qin_POINT317     01/01/2026  01:20:00  0.00023698
Qin_POINT317     01/01/2026  01:25:00  0.00004740
Qin_POINT317     01/01/2026  01:30:00  0.00000000
Qin_POINT317     01/01/2026  01:35:00  0.00000000
Qin_POINT317     01/01/2026  01:40:00  0.00000000
Qin_POINT317     01/01/2026  01:45:00  0.00000000
Qin_POINT317     01/01/2026  01:50:00  0.00000000
Qin_POINT317     01/01/2026  01:55:00  0.00000000
Qin_POINT317     01/01/2026  02:00:00  0.00000000
Qin_POINT317     01/01/2026  02:05:00  0.00000000
Qin_POINT317     01/01/2026  02:10:00  0.00000000
Qin_POINT317     01/01/2026  02:15:00  0.00000000
Qin_POINT317     01/01/2026  02:20:00  0.00000000
Qin_POINT317     01/01/2026  02:25:00  0.00000000
Qin_POINT317     01/01/2026  02:30:00  0.00000000
Qin_POINT317     01/01/2026  02:35:00  0.00000000
Qin_POINT317     01/01/2026  02:40:00  0.00000000
Qin_POINT317     01/01/2026  02:45:00  0.00000000
Qin_POINT317     01/01/2026  02:50:00  0.00000000
Qin_POINT317     01/01/2026  02:55:00  0.00000000
Qin_POINT317     01/01/2026  03:00:00  0.00000000
Qin_POINT319     01/01/2026  00:00:00  0.00000000
Qin_POINT319     01/01/2026  00:05:00  0.00023698
Qin_POINT319     01/01/2026  00:10:00  0.00061615
Qin_POINT319     01/01/2026  00:15:00  0.00127970
Qin_POINT319     01/01/2026  00:20:00  0.00224225
Qin_POINT319     01/01/2026  00:25:00  0.00472109
Qin_POINT319     01/01/2026  00:30:00  0.00782904
Qin_POINT319     01/01/2026  00:35:00  0.01175371
Qin_POINT319     01/01/2026  00:40:00  0.01564474
Qin_POINT319     01/01/2026  00:45:00  0.01296134
Qin_POINT319     01/01/2026  00:50:00  0.00922508
Qin_POINT319     01/01/2026  00:55:00  0.00616419
Qin_POINT319     01/01/2026  01:00:00  0.00412692
Qin_POINT319     01/01/2026  01:05:00  0.00277123
Qin_POINT319     01/01/2026  01:10:00  0.00175439
Qin_POINT319     01/01/2026  01:15:00  0.00073319
Qin_POINT319     01/01/2026  01:20:00  0.00023698
Qin_POINT319     01/01/2026  01:25:00  0.00004740
Qin_POINT319     01/01/2026  01:30:00  0.00000000
Qin_POINT319     01/01/2026  01:35:00  0.00000000
Qin_POINT319     01/01/2026  01:40:00  0.00000000
Qin_POINT319     01/01/2026  01:45:00  0.00000000
Qin_POINT319     01/01/2026  01:50:00  0.00000000
Qin_POINT319     01/01/2026  01:55:00  0.00000000
Qin_POINT319     01/01/2026  02:00:00  0.00000000
Qin_POINT319     01/01/2026  02:05:00  0.00000000
Qin_POINT319     01/01/2026  02:10:00  0.00000000
Qin_POINT319     01/01/2026  02:15:00  0.00000000
Qin_POINT319     01/01/2026  02:20:00  0.00000000
Qin_POINT319     01/01/2026  02:25:00  0.00000000
Qin_POINT319     01/01/2026  02:30:00  0.00000000
Qin_POINT319     01/01/2026  02:35:00  0.00000000
Qin_POINT319     01/01/2026  02:40:00  0.00000000
Qin_POINT319     01/01/2026  02:45:00  0.00000000
Qin_POINT319     01/01/2026  02:50:00  0.00000000
Qin_POINT319     01/01/2026  02:55:00  0.00000000
Qin_POINT319     01/01/2026  03:00:00  0.00000000
Qin_POINT320     01/01/2026  00:00:00  0.00000000
Qin_POINT320     01/01/2026  00:05:00  0.00023698
Qin_POINT320     01/01/2026  00:10:00  0.00061615
Qin_POINT320     01/01/2026  00:15:00  0.00127970
Qin_POINT320     01/01/2026  00:20:00  0.00224225
Qin_POINT320     01/01/2026  00:25:00  0.00472109
Qin_POINT320     01/01/2026  00:30:00  0.00782904
Qin_POINT320     01/01/2026  00:35:00  0.01175371
Qin_POINT320     01/01/2026  00:40:00  0.01564474
Qin_POINT320     01/01/2026  00:45:00  0.01296134
Qin_POINT320     01/01/2026  00:50:00  0.00922508
Qin_POINT320     01/01/2026  00:55:00  0.00616419
Qin_POINT320     01/01/2026  01:00:00  0.00412692
Qin_POINT320     01/01/2026  01:05:00  0.00277123
Qin_POINT320     01/01/2026  01:10:00  0.00175439
Qin_POINT320     01/01/2026  01:15:00  0.00073319
Qin_POINT320     01/01/2026  01:20:00  0.00023698
Qin_POINT320     01/01/2026  01:25:00  0.00004740
Qin_POINT320     01/01/2026  01:30:00  0.00000000
Qin_POINT320     01/01/2026  01:35:00  0.00000000
Qin_POINT320     01/01/2026  01:40:00  0.00000000
Qin_POINT320     01/01/2026  01:45:00  0.00000000
Qin_POINT320     01/01/2026  01:50:00  0.00000000
Qin_POINT320     01/01/2026  01:55:00  0.00000000
Qin_POINT320     01/01/2026  02:00:00  0.00000000
Qin_POINT320     01/01/2026  02:05:00  0.00000000
Qin_POINT320     01/01/2026  02:10:00  0.00000000
Qin_POINT320     01/01/2026  02:15:00  0.00000000
Qin_POINT320     01/01/2026  02:20:00  0.00000000
Qin_POINT320     01/01/2026  02:25:00  0.00000000
Qin_POINT320     01/01/2026  02:30:00  0.00000000
Qin_POINT320     01/01/2026  02:35:00  0.00000000
Qin_POINT320     01/01/2026  02:40:00  0.00000000
Qin_POINT320     01/01/2026  02:45:00  0.00000000
Qin_POINT320     01/01/2026  02:50:00  0.00000000
Qin_POINT320     01/01/2026  02:55:00  0.00000000
Qin_POINT320     01/01/2026  03:00:00  0.00000000
Qin_POINT321     01/01/2026  00:00:00  0.00000000
Qin_POINT321     01/01/2026  00:05:00  0.00023698
Qin_POINT321     01/01/2026  00:10:00  0.00061615
Qin_POINT321     01/01/2026  00:15:00  0.00127970
Qin_POINT321     01/01/2026  00:20:00  0.00224225
Qin_POINT321     01/01/2026  00:25:00  0.00472109
Qin_POINT321     01/01/2026  00:30:00  0.00782904
Qin_POINT321     01/01/2026  00:35:00  0.01175371
Qin_POINT321     01/01/2026  00:40:00  0.01564474
Qin_POINT321     01/01/2026  00:45:00  0.01296134
Qin_POINT321     01/01/2026  00:50:00  0.00922508
Qin_POINT321     01/01/2026  00:55:00  0.00616419
Qin_POINT321     01/01/2026  01:00:00  0.00412692
Qin_POINT321     01/01/2026  01:05:00  0.00277123
Qin_POINT321     01/01/2026  01:10:00  0.00175439
Qin_POINT321     01/01/2026  01:15:00  0.00073319
Qin_POINT321     01/01/2026  01:20:00  0.00023698
Qin_POINT321     01/01/2026  01:25:00  0.00004740
Qin_POINT321     01/01/2026  01:30:00  0.00000000
Qin_POINT321     01/01/2026  01:35:00  0.00000000
Qin_POINT321     01/01/2026  01:40:00  0.00000000
Qin_POINT321     01/01/2026  01:45:00  0.00000000
Qin_POINT321     01/01/2026  01:50:00  0.00000000
Qin_POINT321     01/01/2026  01:55:00  0.00000000
Qin_POINT321     01/01/2026  02:00:00  0.00000000
Qin_POINT321     01/01/2026  02:05:00  0.00000000
Qin_POINT321     01/01/2026  02:10:00  0.00000000
Qin_POINT321     01/01/2026  02:15:00  0.00000000
Qin_POINT321     01/01/2026  02:20:00  0.00000000
Qin_POINT321     01/01/2026  02:25:00  0.00000000
Qin_POINT321     01/01/2026  02:30:00  0.00000000
Qin_POINT321     01/01/2026  02:35:00  0.00000000
Qin_POINT321     01/01/2026  02:40:00  0.00000000
Qin_POINT321     01/01/2026  02:45:00  0.00000000
Qin_POINT321     01/01/2026  02:50:00  0.00000000
Qin_POINT321     01/01/2026  02:55:00  0.00000000
Qin_POINT321     01/01/2026  03:00:00  0.00000000
Qin_POINT322     01/01/2026  00:00:00  0.00000000
Qin_POINT322     01/01/2026  00:05:00  0.00023698
Qin_POINT322     01/01/2026  00:10:00  0.00061615
Qin_POINT322     01/01/2026  00:15:00  0.00127970
Qin_POINT322     01/01/2026  00:20:00  0.00224225
Qin_POINT322     01/01/2026  00:25:00  0.00472109
Qin_POINT322     01/01/2026  00:30:00  0.00782904
Qin_POINT322     01/01/2026  00:35:00  0.01175371
Qin_POINT322     01/01/2026  00:40:00  0.01564474
Qin_POINT322     01/01/2026  00:45:00  0.01296134
Qin_POINT322     01/01/2026  00:50:00  0.00922508
Qin_POINT322     01/01/2026  00:55:00  0.00616419
Qin_POINT322     01/01/2026  01:00:00  0.00412692
Qin_POINT322     01/01/2026  01:05:00  0.00277123
Qin_POINT322     01/01/2026  01:10:00  0.00175439
Qin_POINT322     01/01/2026  01:15:00  0.00073319
Qin_POINT322     01/01/2026  01:20:00  0.00023698
Qin_POINT322     01/01/2026  01:25:00  0.00004740
Qin_POINT322     01/01/2026  01:30:00  0.00000000
Qin_POINT322     01/01/2026  01:35:00  0.00000000
Qin_POINT322     01/01/2026  01:40:00  0.00000000
Qin_POINT322     01/01/2026  01:45:00  0.00000000
Qin_POINT322     01/01/2026  01:50:00  0.00000000
Qin_POINT322     01/01/2026  01:55:00  0.00000000
Qin_POINT322     01/01/2026  02:00:00  0.00000000
Qin_POINT322     01/01/2026  02:05:00  0.00000000
Qin_POINT322     01/01/2026  02:10:00  0.00000000
Qin_POINT322     01/01/2026  02:15:00  0.00000000
Qin_POINT322     01/01/2026  02:20:00  0.00000000
Qin_POINT322     01/01/2026  02:25:00  0.00000000
Qin_POINT322     01/01/2026  02:30:00  0.00000000
Qin_POINT322     01/01/2026  02:35:00  0.00000000
Qin_POINT322     01/01/2026  02:40:00  0.00000000
Qin_POINT322     01/01/2026  02:45:00  0.00000000
Qin_POINT322     01/01/2026  02:50:00  0.00000000
Qin_POINT322     01/01/2026  02:55:00  0.00000000
Qin_POINT322     01/01/2026  03:00:00  0.00000000
Qin_POINT323     01/01/2026  00:00:00  0.00000000
Qin_POINT323     01/01/2026  00:05:00  0.00023698
Qin_POINT323     01/01/2026  00:10:00  0.00061615
Qin_POINT323     01/01/2026  00:15:00  0.00127970
Qin_POINT323     01/01/2026  00:20:00  0.00224225
Qin_POINT323     01/01/2026  00:25:00  0.00472109
Qin_POINT323     01/01/2026  00:30:00  0.00782904
Qin_POINT323     01/01/2026  00:35:00  0.01175371
Qin_POINT323     01/01/2026  00:40:00  0.01564474
Qin_POINT323     01/01/2026  00:45:00  0.01296134
Qin_POINT323     01/01/2026  00:50:00  0.00922508
Qin_POINT323     01/01/2026  00:55:00  0.00616419
Qin_POINT323     01/01/2026  01:00:00  0.00412692
Qin_POINT323     01/01/2026  01:05:00  0.00277123
Qin_POINT323     01/01/2026  01:10:00  0.00175439
Qin_POINT323     01/01/2026  01:15:00  0.00073319
Qin_POINT323     01/01/2026  01:20:00  0.00023698
Qin_POINT323     01/01/2026  01:25:00  0.00004740
Qin_POINT323     01/01/2026  01:30:00  0.00000000
Qin_POINT323     01/01/2026  01:35:00  0.00000000
Qin_POINT323     01/01/2026  01:40:00  0.00000000
Qin_POINT323     01/01/2026  01:45:00  0.00000000
Qin_POINT323     01/01/2026  01:50:00  0.00000000
Qin_POINT323     01/01/2026  01:55:00  0.00000000
Qin_POINT323     01/01/2026  02:00:00  0.00000000
Qin_POINT323     01/01/2026  02:05:00  0.00000000
Qin_POINT323     01/01/2026  02:10:00  0.00000000
Qin_POINT323     01/01/2026  02:15:00  0.00000000
Qin_POINT323     01/01/2026  02:20:00  0.00000000
Qin_POINT323     01/01/2026  02:25:00  0.00000000
Qin_POINT323     01/01/2026  02:30:00  0.00000000
Qin_POINT323     01/01/2026  02:35:00  0.00000000
Qin_POINT323     01/01/2026  02:40:00  0.00000000
Qin_POINT323     01/01/2026  02:45:00  0.00000000
Qin_POINT323     01/01/2026  02:50:00  0.00000000
Qin_POINT323     01/01/2026  02:55:00  0.00000000
Qin_POINT323     01/01/2026  03:00:00  0.00000000
Qin_POINT324     01/01/2026  00:00:00  0.00000000
Qin_POINT324     01/01/2026  00:05:00  0.00023698
Qin_POINT324     01/01/2026  00:10:00  0.00061615
Qin_POINT324     01/01/2026  00:15:00  0.00127970
Qin_POINT324     01/01/2026  00:20:00  0.00224225
Qin_POINT324     01/01/2026  00:25:00  0.00472109
Qin_POINT324     01/01/2026  00:30:00  0.00782904
Qin_POINT324     01/01/2026  00:35:00  0.01175371
Qin_POINT324     01/01/2026  00:40:00  0.01564474
Qin_POINT324     01/01/2026  00:45:00  0.01296134
Qin_POINT324     01/01/2026  00:50:00  0.00922508
Qin_POINT324     01/01/2026  00:55:00  0.00616419
Qin_POINT324     01/01/2026  01:00:00  0.00412692
Qin_POINT324     01/01/2026  01:05:00  0.00277123
Qin_POINT324     01/01/2026  01:10:00  0.00175439
Qin_POINT324     01/01/2026  01:15:00  0.00073319
Qin_POINT324     01/01/2026  01:20:00  0.00023698
Qin_POINT324     01/01/2026  01:25:00  0.00004740
Qin_POINT324     01/01/2026  01:30:00  0.00000000
Qin_POINT324     01/01/2026  01:35:00  0.00000000
Qin_POINT324     01/01/2026  01:40:00  0.00000000
Qin_POINT324     01/01/2026  01:45:00  0.00000000
Qin_POINT324     01/01/2026  01:50:00  0.00000000
Qin_POINT324     01/01/2026  01:55:00  0.00000000
Qin_POINT324     01/01/2026  02:00:00  0.00000000
Qin_POINT324     01/01/2026  02:05:00  0.00000000
Qin_POINT324     01/01/2026  02:10:00  0.00000000
Qin_POINT324     01/01/2026  02:15:00  0.00000000
Qin_POINT324     01/01/2026  02:20:00  0.00000000
Qin_POINT324     01/01/2026  02:25:00  0.00000000
Qin_POINT324     01/01/2026  02:30:00  0.00000000
Qin_POINT324     01/01/2026  02:35:00  0.00000000
Qin_POINT324     01/01/2026  02:40:00  0.00000000
Qin_POINT324     01/01/2026  02:45:00  0.00000000
Qin_POINT324     01/01/2026  02:50:00  0.00000000
Qin_POINT324     01/01/2026  02:55:00  0.00000000
Qin_POINT324     01/01/2026  03:00:00  0.00000000
Qin_POINT325     01/01/2026  00:00:00  0.00000000
Qin_POINT325     01/01/2026  00:05:00  0.00023698
Qin_POINT325     01/01/2026  00:10:00  0.00061615
Qin_POINT325     01/01/2026  00:15:00  0.00127970
Qin_POINT325     01/01/2026  00:20:00  0.00224225
Qin_POINT325     01/01/2026  00:25:00  0.00472109
Qin_POINT325     01/01/2026  00:30:00  0.00782904
Qin_POINT325     01/01/2026  00:35:00  0.01175371
Qin_POINT325     01/01/2026  00:40:00  0.01564474
Qin_POINT325     01/01/2026  00:45:00  0.01296134
Qin_POINT325     01/01/2026  00:50:00  0.00922508
Qin_POINT325     01/01/2026  00:55:00  0.00616419
Qin_POINT325     01/01/2026  01:00:00  0.00412692
Qin_POINT325     01/01/2026  01:05:00  0.00277123
Qin_POINT325     01/01/2026  01:10:00  0.00175439
Qin_POINT325     01/01/2026  01:15:00  0.00073319
Qin_POINT325     01/01/2026  01:20:00  0.00023698
Qin_POINT325     01/01/2026  01:25:00  0.00004740
Qin_POINT325     01/01/2026  01:30:00  0.00000000
Qin_POINT325     01/01/2026  01:35:00  0.00000000
Qin_POINT325     01/01/2026  01:40:00  0.00000000
Qin_POINT325     01/01/2026  01:45:00  0.00000000
Qin_POINT325     01/01/2026  01:50:00  0.00000000
Qin_POINT325     01/01/2026  01:55:00  0.00000000
Qin_POINT325     01/01/2026  02:00:00  0.00000000
Qin_POINT325     01/01/2026  02:05:00  0.00000000
Qin_POINT325     01/01/2026  02:10:00  0.00000000
Qin_POINT325     01/01/2026  02:15:00  0.00000000
Qin_POINT325     01/01/2026  02:20:00  0.00000000
Qin_POINT325     01/01/2026  02:25:00  0.00000000
Qin_POINT325     01/01/2026  02:30:00  0.00000000
Qin_POINT325     01/01/2026  02:35:00  0.00000000
Qin_POINT325     01/01/2026  02:40:00  0.00000000
Qin_POINT325     01/01/2026  02:45:00  0.00000000
Qin_POINT325     01/01/2026  02:50:00  0.00000000
Qin_POINT325     01/01/2026  02:55:00  0.00000000
Qin_POINT325     01/01/2026  03:00:00  0.00000000
Qin_POINT326     01/01/2026  00:00:00  0.00000000
Qin_POINT326     01/01/2026  00:05:00  0.00023698
Qin_POINT326     01/01/2026  00:10:00  0.00061615
Qin_POINT326     01/01/2026  00:15:00  0.00127970
Qin_POINT326     01/01/2026  00:20:00  0.00224225
Qin_POINT326     01/01/2026  00:25:00  0.00472109
Qin_POINT326     01/01/2026  00:30:00  0.00782904
Qin_POINT326     01/01/2026  00:35:00  0.01175371
Qin_POINT326     01/01/2026  00:40:00  0.01564474
Qin_POINT326     01/01/2026  00:45:00  0.01296134
Qin_POINT326     01/01/2026  00:50:00  0.00922508
Qin_POINT326     01/01/2026  00:55:00  0.00616419
Qin_POINT326     01/01/2026  01:00:00  0.00412692
Qin_POINT326     01/01/2026  01:05:00  0.00277123
Qin_POINT326     01/01/2026  01:10:00  0.00175439
Qin_POINT326     01/01/2026  01:15:00  0.00073319
Qin_POINT326     01/01/2026  01:20:00  0.00023698
Qin_POINT326     01/01/2026  01:25:00  0.00004740
Qin_POINT326     01/01/2026  01:30:00  0.00000000
Qin_POINT326     01/01/2026  01:35:00  0.00000000
Qin_POINT326     01/01/2026  01:40:00  0.00000000
Qin_POINT326     01/01/2026  01:45:00  0.00000000
Qin_POINT326     01/01/2026  01:50:00  0.00000000
Qin_POINT326     01/01/2026  01:55:00  0.00000000
Qin_POINT326     01/01/2026  02:00:00  0.00000000
Qin_POINT326     01/01/2026  02:05:00  0.00000000
Qin_POINT326     01/01/2026  02:10:00  0.00000000
Qin_POINT326     01/01/2026  02:15:00  0.00000000
Qin_POINT326     01/01/2026  02:20:00  0.00000000
Qin_POINT326     01/01/2026  02:25:00  0.00000000
Qin_POINT326     01/01/2026  02:30:00  0.00000000
Qin_POINT326     01/01/2026  02:35:00  0.00000000
Qin_POINT326     01/01/2026  02:40:00  0.00000000
Qin_POINT326     01/01/2026  02:45:00  0.00000000
Qin_POINT326     01/01/2026  02:50:00  0.00000000
Qin_POINT326     01/01/2026  02:55:00  0.00000000
Qin_POINT326     01/01/2026  03:00:00  0.00000000
Qin_POINT327     01/01/2026  00:00:00  0.00000000
Qin_POINT327     01/01/2026  00:05:00  0.00023698
Qin_POINT327     01/01/2026  00:10:00  0.00061615
Qin_POINT327     01/01/2026  00:15:00  0.00127970
Qin_POINT327     01/01/2026  00:20:00  0.00224225
Qin_POINT327     01/01/2026  00:25:00  0.00472109
Qin_POINT327     01/01/2026  00:30:00  0.00782904
Qin_POINT327     01/01/2026  00:35:00  0.01175371
Qin_POINT327     01/01/2026  00:40:00  0.01564474
Qin_POINT327     01/01/2026  00:45:00  0.01296134
Qin_POINT327     01/01/2026  00:50:00  0.00922508
Qin_POINT327     01/01/2026  00:55:00  0.00616419
Qin_POINT327     01/01/2026  01:00:00  0.00412692
Qin_POINT327     01/01/2026  01:05:00  0.00277123
Qin_POINT327     01/01/2026  01:10:00  0.00175439
Qin_POINT327     01/01/2026  01:15:00  0.00073319
Qin_POINT327     01/01/2026  01:20:00  0.00023698
Qin_POINT327     01/01/2026  01:25:00  0.00004740
Qin_POINT327     01/01/2026  01:30:00  0.00000000
Qin_POINT327     01/01/2026  01:35:00  0.00000000
Qin_POINT327     01/01/2026  01:40:00  0.00000000
Qin_POINT327     01/01/2026  01:45:00  0.00000000
Qin_POINT327     01/01/2026  01:50:00  0.00000000
Qin_POINT327     01/01/2026  01:55:00  0.00000000
Qin_POINT327     01/01/2026  02:00:00  0.00000000
Qin_POINT327     01/01/2026  02:05:00  0.00000000
Qin_POINT327     01/01/2026  02:10:00  0.00000000
Qin_POINT327     01/01/2026  02:15:00  0.00000000
Qin_POINT327     01/01/2026  02:20:00  0.00000000
Qin_POINT327     01/01/2026  02:25:00  0.00000000
Qin_POINT327     01/01/2026  02:30:00  0.00000000
Qin_POINT327     01/01/2026  02:35:00  0.00000000
Qin_POINT327     01/01/2026  02:40:00  0.00000000
Qin_POINT327     01/01/2026  02:45:00  0.00000000
Qin_POINT327     01/01/2026  02:50:00  0.00000000
Qin_POINT327     01/01/2026  02:55:00  0.00000000
Qin_POINT327     01/01/2026  03:00:00  0.00000000
Qin_POINT328     01/01/2026  00:00:00  0.00000000
Qin_POINT328     01/01/2026  00:05:00  0.00023698
Qin_POINT328     01/01/2026  00:10:00  0.00061615
Qin_POINT328     01/01/2026  00:15:00  0.00127970
Qin_POINT328     01/01/2026  00:20:00  0.00224225
Qin_POINT328     01/01/2026  00:25:00  0.00472109
Qin_POINT328     01/01/2026  00:30:00  0.00782904
Qin_POINT328     01/01/2026  00:35:00  0.01175371
Qin_POINT328     01/01/2026  00:40:00  0.01564474
Qin_POINT328     01/01/2026  00:45:00  0.01296134
Qin_POINT328     01/01/2026  00:50:00  0.00922508
Qin_POINT328     01/01/2026  00:55:00  0.00616419
Qin_POINT328     01/01/2026  01:00:00  0.00412692
Qin_POINT328     01/01/2026  01:05:00  0.00277123
Qin_POINT328     01/01/2026  01:10:00  0.00175439
Qin_POINT328     01/01/2026  01:15:00  0.00073319
Qin_POINT328     01/01/2026  01:20:00  0.00023698
Qin_POINT328     01/01/2026  01:25:00  0.00004740
Qin_POINT328     01/01/2026  01:30:00  0.00000000
Qin_POINT328     01/01/2026  01:35:00  0.00000000
Qin_POINT328     01/01/2026  01:40:00  0.00000000
Qin_POINT328     01/01/2026  01:45:00  0.00000000
Qin_POINT328     01/01/2026  01:50:00  0.00000000
Qin_POINT328     01/01/2026  01:55:00  0.00000000
Qin_POINT328     01/01/2026  02:00:00  0.00000000
Qin_POINT328     01/01/2026  02:05:00  0.00000000
Qin_POINT328     01/01/2026  02:10:00  0.00000000
Qin_POINT328     01/01/2026  02:15:00  0.00000000
Qin_POINT328     01/01/2026  02:20:00  0.00000000
Qin_POINT328     01/01/2026  02:25:00  0.00000000
Qin_POINT328     01/01/2026  02:30:00  0.00000000
Qin_POINT328     01/01/2026  02:35:00  0.00000000
Qin_POINT328     01/01/2026  02:40:00  0.00000000
Qin_POINT328     01/01/2026  02:45:00  0.00000000
Qin_POINT328     01/01/2026  02:50:00  0.00000000
Qin_POINT328     01/01/2026  02:55:00  0.00000000
Qin_POINT328     01/01/2026  03:00:00  0.00000000
Qin_POINT329     01/01/2026  00:00:00  0.00000000
Qin_POINT329     01/01/2026  00:05:00  0.00023698
Qin_POINT329     01/01/2026  00:10:00  0.00061615
Qin_POINT329     01/01/2026  00:15:00  0.00127970
Qin_POINT329     01/01/2026  00:20:00  0.00224225
Qin_POINT329     01/01/2026  00:25:00  0.00472109
Qin_POINT329     01/01/2026  00:30:00  0.00782904
Qin_POINT329     01/01/2026  00:35:00  0.01175371
Qin_POINT329     01/01/2026  00:40:00  0.01564474
Qin_POINT329     01/01/2026  00:45:00  0.01296134
Qin_POINT329     01/01/2026  00:50:00  0.00922508
Qin_POINT329     01/01/2026  00:55:00  0.00616419
Qin_POINT329     01/01/2026  01:00:00  0.00412692
Qin_POINT329     01/01/2026  01:05:00  0.00277123
Qin_POINT329     01/01/2026  01:10:00  0.00175439
Qin_POINT329     01/01/2026  01:15:00  0.00073319
Qin_POINT329     01/01/2026  01:20:00  0.00023698
Qin_POINT329     01/01/2026  01:25:00  0.00004740
Qin_POINT329     01/01/2026  01:30:00  0.00000000
Qin_POINT329     01/01/2026  01:35:00  0.00000000
Qin_POINT329     01/01/2026  01:40:00  0.00000000
Qin_POINT329     01/01/2026  01:45:00  0.00000000
Qin_POINT329     01/01/2026  01:50:00  0.00000000
Qin_POINT329     01/01/2026  01:55:00  0.00000000
Qin_POINT329     01/01/2026  02:00:00  0.00000000
Qin_POINT329     01/01/2026  02:05:00  0.00000000
Qin_POINT329     01/01/2026  02:10:00  0.00000000
Qin_POINT329     01/01/2026  02:15:00  0.00000000
Qin_POINT329     01/01/2026  02:20:00  0.00000000
Qin_POINT329     01/01/2026  02:25:00  0.00000000
Qin_POINT329     01/01/2026  02:30:00  0.00000000
Qin_POINT329     01/01/2026  02:35:00  0.00000000
Qin_POINT329     01/01/2026  02:40:00  0.00000000
Qin_POINT329     01/01/2026  02:45:00  0.00000000
Qin_POINT329     01/01/2026  02:50:00  0.00000000
Qin_POINT329     01/01/2026  02:55:00  0.00000000
Qin_POINT329     01/01/2026  03:00:00  0.00000000
Qin_POINT330     01/01/2026  00:00:00  0.00000000
Qin_POINT330     01/01/2026  00:05:00  0.00023698
Qin_POINT330     01/01/2026  00:10:00  0.00061615
Qin_POINT330     01/01/2026  00:15:00  0.00127970
Qin_POINT330     01/01/2026  00:20:00  0.00224225
Qin_POINT330     01/01/2026  00:25:00  0.00472109
Qin_POINT330     01/01/2026  00:30:00  0.00782904
Qin_POINT330     01/01/2026  00:35:00  0.01175371
Qin_POINT330     01/01/2026  00:40:00  0.01564474
Qin_POINT330     01/01/2026  00:45:00  0.01296134
Qin_POINT330     01/01/2026  00:50:00  0.00922508
Qin_POINT330     01/01/2026  00:55:00  0.00616419
Qin_POINT330     01/01/2026  01:00:00  0.00412692
Qin_POINT330     01/01/2026  01:05:00  0.00277123
Qin_POINT330     01/01/2026  01:10:00  0.00175439
Qin_POINT330     01/01/2026  01:15:00  0.00073319
Qin_POINT330     01/01/2026  01:20:00  0.00023698
Qin_POINT330     01/01/2026  01:25:00  0.00004740
Qin_POINT330     01/01/2026  01:30:00  0.00000000
Qin_POINT330     01/01/2026  01:35:00  0.00000000
Qin_POINT330     01/01/2026  01:40:00  0.00000000
Qin_POINT330     01/01/2026  01:45:00  0.00000000
Qin_POINT330     01/01/2026  01:50:00  0.00000000
Qin_POINT330     01/01/2026  01:55:00  0.00000000
Qin_POINT330     01/01/2026  02:00:00  0.00000000
Qin_POINT330     01/01/2026  02:05:00  0.00000000
Qin_POINT330     01/01/2026  02:10:00  0.00000000
Qin_POINT330     01/01/2026  02:15:00  0.00000000
Qin_POINT330     01/01/2026  02:20:00  0.00000000
Qin_POINT330     01/01/2026  02:25:00  0.00000000
Qin_POINT330     01/01/2026  02:30:00  0.00000000
Qin_POINT330     01/01/2026  02:35:00  0.00000000
Qin_POINT330     01/01/2026  02:40:00  0.00000000
Qin_POINT330     01/01/2026  02:45:00  0.00000000
Qin_POINT330     01/01/2026  02:50:00  0.00000000
Qin_POINT330     01/01/2026  02:55:00  0.00000000
Qin_POINT330     01/01/2026  03:00:00  0.00000000
Qin_POINT331     01/01/2026  00:00:00  0.00000000
Qin_POINT331     01/01/2026  00:05:00  0.00023698
Qin_POINT331     01/01/2026  00:10:00  0.00061615
Qin_POINT331     01/01/2026  00:15:00  0.00127970
Qin_POINT331     01/01/2026  00:20:00  0.00224225
Qin_POINT331     01/01/2026  00:25:00  0.00472109
Qin_POINT331     01/01/2026  00:30:00  0.00782904
Qin_POINT331     01/01/2026  00:35:00  0.01175371
Qin_POINT331     01/01/2026  00:40:00  0.01564474
Qin_POINT331     01/01/2026  00:45:00  0.01296134
Qin_POINT331     01/01/2026  00:50:00  0.00922508
Qin_POINT331     01/01/2026  00:55:00  0.00616419
Qin_POINT331     01/01/2026  01:00:00  0.00412692
Qin_POINT331     01/01/2026  01:05:00  0.00277123
Qin_POINT331     01/01/2026  01:10:00  0.00175439
Qin_POINT331     01/01/2026  01:15:00  0.00073319
Qin_POINT331     01/01/2026  01:20:00  0.00023698
Qin_POINT331     01/01/2026  01:25:00  0.00004740
Qin_POINT331     01/01/2026  01:30:00  0.00000000
Qin_POINT331     01/01/2026  01:35:00  0.00000000
Qin_POINT331     01/01/2026  01:40:00  0.00000000
Qin_POINT331     01/01/2026  01:45:00  0.00000000
Qin_POINT331     01/01/2026  01:50:00  0.00000000
Qin_POINT331     01/01/2026  01:55:00  0.00000000
Qin_POINT331     01/01/2026  02:00:00  0.00000000
Qin_POINT331     01/01/2026  02:05:00  0.00000000
Qin_POINT331     01/01/2026  02:10:00  0.00000000
Qin_POINT331     01/01/2026  02:15:00  0.00000000
Qin_POINT331     01/01/2026  02:20:00  0.00000000
Qin_POINT331     01/01/2026  02:25:00  0.00000000
Qin_POINT331     01/01/2026  02:30:00  0.00000000
Qin_POINT331     01/01/2026  02:35:00  0.00000000
Qin_POINT331     01/01/2026  02:40:00  0.00000000
Qin_POINT331     01/01/2026  02:45:00  0.00000000
Qin_POINT331     01/01/2026  02:50:00  0.00000000
Qin_POINT331     01/01/2026  02:55:00  0.00000000
Qin_POINT331     01/01/2026  03:00:00  0.00000000
Qin_POINT332     01/01/2026  00:00:00  0.00000000
Qin_POINT332     01/01/2026  00:05:00  0.00023698
Qin_POINT332     01/01/2026  00:10:00  0.00061615
Qin_POINT332     01/01/2026  00:15:00  0.00127970
Qin_POINT332     01/01/2026  00:20:00  0.00224225
Qin_POINT332     01/01/2026  00:25:00  0.00472109
Qin_POINT332     01/01/2026  00:30:00  0.00782904
Qin_POINT332     01/01/2026  00:35:00  0.01175371
Qin_POINT332     01/01/2026  00:40:00  0.01564474
Qin_POINT332     01/01/2026  00:45:00  0.01296134
Qin_POINT332     01/01/2026  00:50:00  0.00922508
Qin_POINT332     01/01/2026  00:55:00  0.00616419
Qin_POINT332     01/01/2026  01:00:00  0.00412692
Qin_POINT332     01/01/2026  01:05:00  0.00277123
Qin_POINT332     01/01/2026  01:10:00  0.00175439
Qin_POINT332     01/01/2026  01:15:00  0.00073319
Qin_POINT332     01/01/2026  01:20:00  0.00023698
Qin_POINT332     01/01/2026  01:25:00  0.00004740
Qin_POINT332     01/01/2026  01:30:00  0.00000000
Qin_POINT332     01/01/2026  01:35:00  0.00000000
Qin_POINT332     01/01/2026  01:40:00  0.00000000
Qin_POINT332     01/01/2026  01:45:00  0.00000000
Qin_POINT332     01/01/2026  01:50:00  0.00000000
Qin_POINT332     01/01/2026  01:55:00  0.00000000
Qin_POINT332     01/01/2026  02:00:00  0.00000000
Qin_POINT332     01/01/2026  02:05:00  0.00000000
Qin_POINT332     01/01/2026  02:10:00  0.00000000
Qin_POINT332     01/01/2026  02:15:00  0.00000000
Qin_POINT332     01/01/2026  02:20:00  0.00000000
Qin_POINT332     01/01/2026  02:25:00  0.00000000
Qin_POINT332     01/01/2026  02:30:00  0.00000000
Qin_POINT332     01/01/2026  02:35:00  0.00000000
Qin_POINT332     01/01/2026  02:40:00  0.00000000
Qin_POINT332     01/01/2026  02:45:00  0.00000000
Qin_POINT332     01/01/2026  02:50:00  0.00000000
Qin_POINT332     01/01/2026  02:55:00  0.00000000
Qin_POINT332     01/01/2026  03:00:00  0.00000000
Qin_POINT333     01/01/2026  00:00:00  0.00000000
Qin_POINT333     01/01/2026  00:05:00  0.00023698
Qin_POINT333     01/01/2026  00:10:00  0.00061615
Qin_POINT333     01/01/2026  00:15:00  0.00127970
Qin_POINT333     01/01/2026  00:20:00  0.00224225
Qin_POINT333     01/01/2026  00:25:00  0.00472109
Qin_POINT333     01/01/2026  00:30:00  0.00782904
Qin_POINT333     01/01/2026  00:35:00  0.01175371
Qin_POINT333     01/01/2026  00:40:00  0.01564474
Qin_POINT333     01/01/2026  00:45:00  0.01296134
Qin_POINT333     01/01/2026  00:50:00  0.00922508
Qin_POINT333     01/01/2026  00:55:00  0.00616419
Qin_POINT333     01/01/2026  01:00:00  0.00412692
Qin_POINT333     01/01/2026  01:05:00  0.00277123
Qin_POINT333     01/01/2026  01:10:00  0.00175439
Qin_POINT333     01/01/2026  01:15:00  0.00073319
Qin_POINT333     01/01/2026  01:20:00  0.00023698
Qin_POINT333     01/01/2026  01:25:00  0.00004740
Qin_POINT333     01/01/2026  01:30:00  0.00000000
Qin_POINT333     01/01/2026  01:35:00  0.00000000
Qin_POINT333     01/01/2026  01:40:00  0.00000000
Qin_POINT333     01/01/2026  01:45:00  0.00000000
Qin_POINT333     01/01/2026  01:50:00  0.00000000
Qin_POINT333     01/01/2026  01:55:00  0.00000000
Qin_POINT333     01/01/2026  02:00:00  0.00000000
Qin_POINT333     01/01/2026  02:05:00  0.00000000
Qin_POINT333     01/01/2026  02:10:00  0.00000000
Qin_POINT333     01/01/2026  02:15:00  0.00000000
Qin_POINT333     01/01/2026  02:20:00  0.00000000
Qin_POINT333     01/01/2026  02:25:00  0.00000000
Qin_POINT333     01/01/2026  02:30:00  0.00000000
Qin_POINT333     01/01/2026  02:35:00  0.00000000
Qin_POINT333     01/01/2026  02:40:00  0.00000000
Qin_POINT333     01/01/2026  02:45:00  0.00000000
Qin_POINT333     01/01/2026  02:50:00  0.00000000
Qin_POINT333     01/01/2026  02:55:00  0.00000000
Qin_POINT333     01/01/2026  03:00:00  0.00000000
Qin_POINT334     01/01/2026  00:00:00  0.00000000
Qin_POINT334     01/01/2026  00:05:00  0.00023698
Qin_POINT334     01/01/2026  00:10:00  0.00061615
Qin_POINT334     01/01/2026  00:15:00  0.00127970
Qin_POINT334     01/01/2026  00:20:00  0.00224225
Qin_POINT334     01/01/2026  00:25:00  0.00472109
Qin_POINT334     01/01/2026  00:30:00  0.00782904
Qin_POINT334     01/01/2026  00:35:00  0.01175371
Qin_POINT334     01/01/2026  00:40:00  0.01564474
Qin_POINT334     01/01/2026  00:45:00  0.01296134
Qin_POINT334     01/01/2026  00:50:00  0.00922508
Qin_POINT334     01/01/2026  00:55:00  0.00616419
Qin_POINT334     01/01/2026  01:00:00  0.00412692
Qin_POINT334     01/01/2026  01:05:00  0.00277123
Qin_POINT334     01/01/2026  01:10:00  0.00175439
Qin_POINT334     01/01/2026  01:15:00  0.00073319
Qin_POINT334     01/01/2026  01:20:00  0.00023698
Qin_POINT334     01/01/2026  01:25:00  0.00004740
Qin_POINT334     01/01/2026  01:30:00  0.00000000
Qin_POINT334     01/01/2026  01:35:00  0.00000000
Qin_POINT334     01/01/2026  01:40:00  0.00000000
Qin_POINT334     01/01/2026  01:45:00  0.00000000
Qin_POINT334     01/01/2026  01:50:00  0.00000000
Qin_POINT334     01/01/2026  01:55:00  0.00000000
Qin_POINT334     01/01/2026  02:00:00  0.00000000
Qin_POINT334     01/01/2026  02:05:00  0.00000000
Qin_POINT334     01/01/2026  02:10:00  0.00000000
Qin_POINT334     01/01/2026  02:15:00  0.00000000
Qin_POINT334     01/01/2026  02:20:00  0.00000000
Qin_POINT334     01/01/2026  02:25:00  0.00000000
Qin_POINT334     01/01/2026  02:30:00  0.00000000
Qin_POINT334     01/01/2026  02:35:00  0.00000000
Qin_POINT334     01/01/2026  02:40:00  0.00000000
Qin_POINT334     01/01/2026  02:45:00  0.00000000
Qin_POINT334     01/01/2026  02:50:00  0.00000000
Qin_POINT334     01/01/2026  02:55:00  0.00000000
Qin_POINT334     01/01/2026  03:00:00  0.00000000
Qin_POINT336     01/01/2026  00:00:00  0.00000000
Qin_POINT336     01/01/2026  00:05:00  0.00023698
Qin_POINT336     01/01/2026  00:10:00  0.00061615
Qin_POINT336     01/01/2026  00:15:00  0.00127970
Qin_POINT336     01/01/2026  00:20:00  0.00224225
Qin_POINT336     01/01/2026  00:25:00  0.00472109
Qin_POINT336     01/01/2026  00:30:00  0.00782904
Qin_POINT336     01/01/2026  00:35:00  0.01175371
Qin_POINT336     01/01/2026  00:40:00  0.01564474
Qin_POINT336     01/01/2026  00:45:00  0.01296134
Qin_POINT336     01/01/2026  00:50:00  0.00922508
Qin_POINT336     01/01/2026  00:55:00  0.00616419
Qin_POINT336     01/01/2026  01:00:00  0.00412692
Qin_POINT336     01/01/2026  01:05:00  0.00277123
Qin_POINT336     01/01/2026  01:10:00  0.00175439
Qin_POINT336     01/01/2026  01:15:00  0.00073319
Qin_POINT336     01/01/2026  01:20:00  0.00023698
Qin_POINT336     01/01/2026  01:25:00  0.00004740
Qin_POINT336     01/01/2026  01:30:00  0.00000000
Qin_POINT336     01/01/2026  01:35:00  0.00000000
Qin_POINT336     01/01/2026  01:40:00  0.00000000
Qin_POINT336     01/01/2026  01:45:00  0.00000000
Qin_POINT336     01/01/2026  01:50:00  0.00000000
Qin_POINT336     01/01/2026  01:55:00  0.00000000
Qin_POINT336     01/01/2026  02:00:00  0.00000000
Qin_POINT336     01/01/2026  02:05:00  0.00000000
Qin_POINT336     01/01/2026  02:10:00  0.00000000
Qin_POINT336     01/01/2026  02:15:00  0.00000000
Qin_POINT336     01/01/2026  02:20:00  0.00000000
Qin_POINT336     01/01/2026  02:25:00  0.00000000
Qin_POINT336     01/01/2026  02:30:00  0.00000000
Qin_POINT336     01/01/2026  02:35:00  0.00000000
Qin_POINT336     01/01/2026  02:40:00  0.00000000
Qin_POINT336     01/01/2026  02:45:00  0.00000000
Qin_POINT336     01/01/2026  02:50:00  0.00000000
Qin_POINT336     01/01/2026  02:55:00  0.00000000
Qin_POINT336     01/01/2026  03:00:00  0.00000000
Qin_POINT337     01/01/2026  00:00:00  0.00000000
Qin_POINT337     01/01/2026  00:05:00  0.00023698
Qin_POINT337     01/01/2026  00:10:00  0.00061615
Qin_POINT337     01/01/2026  00:15:00  0.00127970
Qin_POINT337     01/01/2026  00:20:00  0.00224225
Qin_POINT337     01/01/2026  00:25:00  0.00472109
Qin_POINT337     01/01/2026  00:30:00  0.00782904
Qin_POINT337     01/01/2026  00:35:00  0.01175371
Qin_POINT337     01/01/2026  00:40:00  0.01564474
Qin_POINT337     01/01/2026  00:45:00  0.01296134
Qin_POINT337     01/01/2026  00:50:00  0.00922508
Qin_POINT337     01/01/2026  00:55:00  0.00616419
Qin_POINT337     01/01/2026  01:00:00  0.00412692
Qin_POINT337     01/01/2026  01:05:00  0.00277123
Qin_POINT337     01/01/2026  01:10:00  0.00175439
Qin_POINT337     01/01/2026  01:15:00  0.00073319
Qin_POINT337     01/01/2026  01:20:00  0.00023698
Qin_POINT337     01/01/2026  01:25:00  0.00004740
Qin_POINT337     01/01/2026  01:30:00  0.00000000
Qin_POINT337     01/01/2026  01:35:00  0.00000000
Qin_POINT337     01/01/2026  01:40:00  0.00000000
Qin_POINT337     01/01/2026  01:45:00  0.00000000
Qin_POINT337     01/01/2026  01:50:00  0.00000000
Qin_POINT337     01/01/2026  01:55:00  0.00000000
Qin_POINT337     01/01/2026  02:00:00  0.00000000
Qin_POINT337     01/01/2026  02:05:00  0.00000000
Qin_POINT337     01/01/2026  02:10:00  0.00000000
Qin_POINT337     01/01/2026  02:15:00  0.00000000
Qin_POINT337     01/01/2026  02:20:00  0.00000000
Qin_POINT337     01/01/2026  02:25:00  0.00000000
Qin_POINT337     01/01/2026  02:30:00  0.00000000
Qin_POINT337     01/01/2026  02:35:00  0.00000000
Qin_POINT337     01/01/2026  02:40:00  0.00000000
Qin_POINT337     01/01/2026  02:45:00  0.00000000
Qin_POINT337     01/01/2026  02:50:00  0.00000000
Qin_POINT337     01/01/2026  02:55:00  0.00000000
Qin_POINT337     01/01/2026  03:00:00  0.00000000
Qin_POINT339     01/01/2026  00:00:00  0.00000000
Qin_POINT339     01/01/2026  00:05:00  0.00023698
Qin_POINT339     01/01/2026  00:10:00  0.00061615
Qin_POINT339     01/01/2026  00:15:00  0.00127970
Qin_POINT339     01/01/2026  00:20:00  0.00224225
Qin_POINT339     01/01/2026  00:25:00  0.00472109
Qin_POINT339     01/01/2026  00:30:00  0.00782904
Qin_POINT339     01/01/2026  00:35:00  0.01175371
Qin_POINT339     01/01/2026  00:40:00  0.01564474
Qin_POINT339     01/01/2026  00:45:00  0.01296134
Qin_POINT339     01/01/2026  00:50:00  0.00922508
Qin_POINT339     01/01/2026  00:55:00  0.00616419
Qin_POINT339     01/01/2026  01:00:00  0.00412692
Qin_POINT339     01/01/2026  01:05:00  0.00277123
Qin_POINT339     01/01/2026  01:10:00  0.00175439
Qin_POINT339     01/01/2026  01:15:00  0.00073319
Qin_POINT339     01/01/2026  01:20:00  0.00023698
Qin_POINT339     01/01/2026  01:25:00  0.00004740
Qin_POINT339     01/01/2026  01:30:00  0.00000000
Qin_POINT339     01/01/2026  01:35:00  0.00000000
Qin_POINT339     01/01/2026  01:40:00  0.00000000
Qin_POINT339     01/01/2026  01:45:00  0.00000000
Qin_POINT339     01/01/2026  01:50:00  0.00000000
Qin_POINT339     01/01/2026  01:55:00  0.00000000
Qin_POINT339     01/01/2026  02:00:00  0.00000000
Qin_POINT339     01/01/2026  02:05:00  0.00000000
Qin_POINT339     01/01/2026  02:10:00  0.00000000
Qin_POINT339     01/01/2026  02:15:00  0.00000000
Qin_POINT339     01/01/2026  02:20:00  0.00000000
Qin_POINT339     01/01/2026  02:25:00  0.00000000
Qin_POINT339     01/01/2026  02:30:00  0.00000000
Qin_POINT339     01/01/2026  02:35:00  0.00000000
Qin_POINT339     01/01/2026  02:40:00  0.00000000
Qin_POINT339     01/01/2026  02:45:00  0.00000000
Qin_POINT339     01/01/2026  02:50:00  0.00000000
Qin_POINT339     01/01/2026  02:55:00  0.00000000
Qin_POINT339     01/01/2026  03:00:00  0.00000000
Qin_POINT340     01/01/2026  00:00:00  0.00000000
Qin_POINT340     01/01/2026  00:05:00  0.00023698
Qin_POINT340     01/01/2026  00:10:00  0.00061615
Qin_POINT340     01/01/2026  00:15:00  0.00127970
Qin_POINT340     01/01/2026  00:20:00  0.00224225
Qin_POINT340     01/01/2026  00:25:00  0.00472109
Qin_POINT340     01/01/2026  00:30:00  0.00782904
Qin_POINT340     01/01/2026  00:35:00  0.01175371
Qin_POINT340     01/01/2026  00:40:00  0.01564474
Qin_POINT340     01/01/2026  00:45:00  0.01296134
Qin_POINT340     01/01/2026  00:50:00  0.00922508
Qin_POINT340     01/01/2026  00:55:00  0.00616419
Qin_POINT340     01/01/2026  01:00:00  0.00412692
Qin_POINT340     01/01/2026  01:05:00  0.00277123
Qin_POINT340     01/01/2026  01:10:00  0.00175439
Qin_POINT340     01/01/2026  01:15:00  0.00073319
Qin_POINT340     01/01/2026  01:20:00  0.00023698
Qin_POINT340     01/01/2026  01:25:00  0.00004740
Qin_POINT340     01/01/2026  01:30:00  0.00000000
Qin_POINT340     01/01/2026  01:35:00  0.00000000
Qin_POINT340     01/01/2026  01:40:00  0.00000000
Qin_POINT340     01/01/2026  01:45:00  0.00000000
Qin_POINT340     01/01/2026  01:50:00  0.00000000
Qin_POINT340     01/01/2026  01:55:00  0.00000000
Qin_POINT340     01/01/2026  02:00:00  0.00000000
Qin_POINT340     01/01/2026  02:05:00  0.00000000
Qin_POINT340     01/01/2026  02:10:00  0.00000000
Qin_POINT340     01/01/2026  02:15:00  0.00000000
Qin_POINT340     01/01/2026  02:20:00  0.00000000
Qin_POINT340     01/01/2026  02:25:00  0.00000000
Qin_POINT340     01/01/2026  02:30:00  0.00000000
Qin_POINT340     01/01/2026  02:35:00  0.00000000
Qin_POINT340     01/01/2026  02:40:00  0.00000000
Qin_POINT340     01/01/2026  02:45:00  0.00000000
Qin_POINT340     01/01/2026  02:50:00  0.00000000
Qin_POINT340     01/01/2026  02:55:00  0.00000000
Qin_POINT340     01/01/2026  03:00:00  0.00000000
Qin_POINT341     01/01/2026  00:00:00  0.00000000
Qin_POINT341     01/01/2026  00:05:00  0.00023698
Qin_POINT341     01/01/2026  00:10:00  0.00061615
Qin_POINT341     01/01/2026  00:15:00  0.00127970
Qin_POINT341     01/01/2026  00:20:00  0.00224225
Qin_POINT341     01/01/2026  00:25:00  0.00472109
Qin_POINT341     01/01/2026  00:30:00  0.00782904
Qin_POINT341     01/01/2026  00:35:00  0.01175371
Qin_POINT341     01/01/2026  00:40:00  0.01564474
Qin_POINT341     01/01/2026  00:45:00  0.01296134
Qin_POINT341     01/01/2026  00:50:00  0.00922508
Qin_POINT341     01/01/2026  00:55:00  0.00616419
Qin_POINT341     01/01/2026  01:00:00  0.00412692
Qin_POINT341     01/01/2026  01:05:00  0.00277123
Qin_POINT341     01/01/2026  01:10:00  0.00175439
Qin_POINT341     01/01/2026  01:15:00  0.00073319
Qin_POINT341     01/01/2026  01:20:00  0.00023698
Qin_POINT341     01/01/2026  01:25:00  0.00004740
Qin_POINT341     01/01/2026  01:30:00  0.00000000
Qin_POINT341     01/01/2026  01:35:00  0.00000000
Qin_POINT341     01/01/2026  01:40:00  0.00000000
Qin_POINT341     01/01/2026  01:45:00  0.00000000
Qin_POINT341     01/01/2026  01:50:00  0.00000000
Qin_POINT341     01/01/2026  01:55:00  0.00000000
Qin_POINT341     01/01/2026  02:00:00  0.00000000
Qin_POINT341     01/01/2026  02:05:00  0.00000000
Qin_POINT341     01/01/2026  02:10:00  0.00000000
Qin_POINT341     01/01/2026  02:15:00  0.00000000
Qin_POINT341     01/01/2026  02:20:00  0.00000000
Qin_POINT341     01/01/2026  02:25:00  0.00000000
Qin_POINT341     01/01/2026  02:30:00  0.00000000
Qin_POINT341     01/01/2026  02:35:00  0.00000000
Qin_POINT341     01/01/2026  02:40:00  0.00000000
Qin_POINT341     01/01/2026  02:45:00  0.00000000
Qin_POINT341     01/01/2026  02:50:00  0.00000000
Qin_POINT341     01/01/2026  02:55:00  0.00000000
Qin_POINT341     01/01/2026  03:00:00  0.00000000
Qin_POINT343     01/01/2026  00:00:00  0.00000000
Qin_POINT343     01/01/2026  00:05:00  0.00023698
Qin_POINT343     01/01/2026  00:10:00  0.00061615
Qin_POINT343     01/01/2026  00:15:00  0.00127970
Qin_POINT343     01/01/2026  00:20:00  0.00224225
Qin_POINT343     01/01/2026  00:25:00  0.00472109
Qin_POINT343     01/01/2026  00:30:00  0.00782904
Qin_POINT343     01/01/2026  00:35:00  0.01175371
Qin_POINT343     01/01/2026  00:40:00  0.01564474
Qin_POINT343     01/01/2026  00:45:00  0.01296134
Qin_POINT343     01/01/2026  00:50:00  0.00922508
Qin_POINT343     01/01/2026  00:55:00  0.00616419
Qin_POINT343     01/01/2026  01:00:00  0.00412692
Qin_POINT343     01/01/2026  01:05:00  0.00277123
Qin_POINT343     01/01/2026  01:10:00  0.00175439
Qin_POINT343     01/01/2026  01:15:00  0.00073319
Qin_POINT343     01/01/2026  01:20:00  0.00023698
Qin_POINT343     01/01/2026  01:25:00  0.00004740
Qin_POINT343     01/01/2026  01:30:00  0.00000000
Qin_POINT343     01/01/2026  01:35:00  0.00000000
Qin_POINT343     01/01/2026  01:40:00  0.00000000
Qin_POINT343     01/01/2026  01:45:00  0.00000000
Qin_POINT343     01/01/2026  01:50:00  0.00000000
Qin_POINT343     01/01/2026  01:55:00  0.00000000
Qin_POINT343     01/01/2026  02:00:00  0.00000000
Qin_POINT343     01/01/2026  02:05:00  0.00000000
Qin_POINT343     01/01/2026  02:10:00  0.00000000
Qin_POINT343     01/01/2026  02:15:00  0.00000000
Qin_POINT343     01/01/2026  02:20:00  0.00000000
Qin_POINT343     01/01/2026  02:25:00  0.00000000
Qin_POINT343     01/01/2026  02:30:00  0.00000000
Qin_POINT343     01/01/2026  02:35:00  0.00000000
Qin_POINT343     01/01/2026  02:40:00  0.00000000
Qin_POINT343     01/01/2026  02:45:00  0.00000000
Qin_POINT343     01/01/2026  02:50:00  0.00000000
Qin_POINT343     01/01/2026  02:55:00  0.00000000
Qin_POINT343     01/01/2026  03:00:00  0.00000000
Qin_POINT344     01/01/2026  00:00:00  0.00000000
Qin_POINT344     01/01/2026  00:05:00  0.00023698
Qin_POINT344     01/01/2026  00:10:00  0.00061615
Qin_POINT344     01/01/2026  00:15:00  0.00127970
Qin_POINT344     01/01/2026  00:20:00  0.00224225
Qin_POINT344     01/01/2026  00:25:00  0.00472109
Qin_POINT344     01/01/2026  00:30:00  0.00782904
Qin_POINT344     01/01/2026  00:35:00  0.01175371
Qin_POINT344     01/01/2026  00:40:00  0.01564474
Qin_POINT344     01/01/2026  00:45:00  0.01296134
Qin_POINT344     01/01/2026  00:50:00  0.00922508
Qin_POINT344     01/01/2026  00:55:00  0.00616419
Qin_POINT344     01/01/2026  01:00:00  0.00412692
Qin_POINT344     01/01/2026  01:05:00  0.00277123
Qin_POINT344     01/01/2026  01:10:00  0.00175439
Qin_POINT344     01/01/2026  01:15:00  0.00073319
Qin_POINT344     01/01/2026  01:20:00  0.00023698
Qin_POINT344     01/01/2026  01:25:00  0.00004740
Qin_POINT344     01/01/2026  01:30:00  0.00000000
Qin_POINT344     01/01/2026  01:35:00  0.00000000
Qin_POINT344     01/01/2026  01:40:00  0.00000000
Qin_POINT344     01/01/2026  01:45:00  0.00000000
Qin_POINT344     01/01/2026  01:50:00  0.00000000
Qin_POINT344     01/01/2026  01:55:00  0.00000000
Qin_POINT344     01/01/2026  02:00:00  0.00000000
Qin_POINT344     01/01/2026  02:05:00  0.00000000
Qin_POINT344     01/01/2026  02:10:00  0.00000000
Qin_POINT344     01/01/2026  02:15:00  0.00000000
Qin_POINT344     01/01/2026  02:20:00  0.00000000
Qin_POINT344     01/01/2026  02:25:00  0.00000000
Qin_POINT344     01/01/2026  02:30:00  0.00000000
Qin_POINT344     01/01/2026  02:35:00  0.00000000
Qin_POINT344     01/01/2026  02:40:00  0.00000000
Qin_POINT344     01/01/2026  02:45:00  0.00000000
Qin_POINT344     01/01/2026  02:50:00  0.00000000
Qin_POINT344     01/01/2026  02:55:00  0.00000000
Qin_POINT344     01/01/2026  03:00:00  0.00000000
Qin_POINT345     01/01/2026  00:00:00  0.00000000
Qin_POINT345     01/01/2026  00:05:00  0.00023698
Qin_POINT345     01/01/2026  00:10:00  0.00061615
Qin_POINT345     01/01/2026  00:15:00  0.00127970
Qin_POINT345     01/01/2026  00:20:00  0.00224225
Qin_POINT345     01/01/2026  00:25:00  0.00472109
Qin_POINT345     01/01/2026  00:30:00  0.00782904
Qin_POINT345     01/01/2026  00:35:00  0.01175371
Qin_POINT345     01/01/2026  00:40:00  0.01564474
Qin_POINT345     01/01/2026  00:45:00  0.01296134
Qin_POINT345     01/01/2026  00:50:00  0.00922508
Qin_POINT345     01/01/2026  00:55:00  0.00616419
Qin_POINT345     01/01/2026  01:00:00  0.00412692
Qin_POINT345     01/01/2026  01:05:00  0.00277123
Qin_POINT345     01/01/2026  01:10:00  0.00175439
Qin_POINT345     01/01/2026  01:15:00  0.00073319
Qin_POINT345     01/01/2026  01:20:00  0.00023698
Qin_POINT345     01/01/2026  01:25:00  0.00004740
Qin_POINT345     01/01/2026  01:30:00  0.00000000
Qin_POINT345     01/01/2026  01:35:00  0.00000000
Qin_POINT345     01/01/2026  01:40:00  0.00000000
Qin_POINT345     01/01/2026  01:45:00  0.00000000
Qin_POINT345     01/01/2026  01:50:00  0.00000000
Qin_POINT345     01/01/2026  01:55:00  0.00000000
Qin_POINT345     01/01/2026  02:00:00  0.00000000
Qin_POINT345     01/01/2026  02:05:00  0.00000000
Qin_POINT345     01/01/2026  02:10:00  0.00000000
Qin_POINT345     01/01/2026  02:15:00  0.00000000
Qin_POINT345     01/01/2026  02:20:00  0.00000000
Qin_POINT345     01/01/2026  02:25:00  0.00000000
Qin_POINT345     01/01/2026  02:30:00  0.00000000
Qin_POINT345     01/01/2026  02:35:00  0.00000000
Qin_POINT345     01/01/2026  02:40:00  0.00000000
Qin_POINT345     01/01/2026  02:45:00  0.00000000
Qin_POINT345     01/01/2026  02:50:00  0.00000000
Qin_POINT345     01/01/2026  02:55:00  0.00000000
Qin_POINT345     01/01/2026  03:00:00  0.00000000
Qin_POINT346     01/01/2026  00:00:00  0.00000000
Qin_POINT346     01/01/2026  00:05:00  0.00023698
Qin_POINT346     01/01/2026  00:10:00  0.00061615
Qin_POINT346     01/01/2026  00:15:00  0.00127970
Qin_POINT346     01/01/2026  00:20:00  0.00224225
Qin_POINT346     01/01/2026  00:25:00  0.00472109
Qin_POINT346     01/01/2026  00:30:00  0.00782904
Qin_POINT346     01/01/2026  00:35:00  0.01175371
Qin_POINT346     01/01/2026  00:40:00  0.01564474
Qin_POINT346     01/01/2026  00:45:00  0.01296134
Qin_POINT346     01/01/2026  00:50:00  0.00922508
Qin_POINT346     01/01/2026  00:55:00  0.00616419
Qin_POINT346     01/01/2026  01:00:00  0.00412692
Qin_POINT346     01/01/2026  01:05:00  0.00277123
Qin_POINT346     01/01/2026  01:10:00  0.00175439
Qin_POINT346     01/01/2026  01:15:00  0.00073319
Qin_POINT346     01/01/2026  01:20:00  0.00023698
Qin_POINT346     01/01/2026  01:25:00  0.00004740
Qin_POINT346     01/01/2026  01:30:00  0.00000000
Qin_POINT346     01/01/2026  01:35:00  0.00000000
Qin_POINT346     01/01/2026  01:40:00  0.00000000
Qin_POINT346     01/01/2026  01:45:00  0.00000000
Qin_POINT346     01/01/2026  01:50:00  0.00000000
Qin_POINT346     01/01/2026  01:55:00  0.00000000
Qin_POINT346     01/01/2026  02:00:00  0.00000000
Qin_POINT346     01/01/2026  02:05:00  0.00000000
Qin_POINT346     01/01/2026  02:10:00  0.00000000
Qin_POINT346     01/01/2026  02:15:00  0.00000000
Qin_POINT346     01/01/2026  02:20:00  0.00000000
Qin_POINT346     01/01/2026  02:25:00  0.00000000
Qin_POINT346     01/01/2026  02:30:00  0.00000000
Qin_POINT346     01/01/2026  02:35:00  0.00000000
Qin_POINT346     01/01/2026  02:40:00  0.00000000
Qin_POINT346     01/01/2026  02:45:00  0.00000000
Qin_POINT346     01/01/2026  02:50:00  0.00000000
Qin_POINT346     01/01/2026  02:55:00  0.00000000
Qin_POINT346     01/01/2026  03:00:00  0.00000000
Qin_POINT347     01/01/2026  00:00:00  0.00000000
Qin_POINT347     01/01/2026  00:05:00  0.00023698
Qin_POINT347     01/01/2026  00:10:00  0.00061615
Qin_POINT347     01/01/2026  00:15:00  0.00127970
Qin_POINT347     01/01/2026  00:20:00  0.00224225
Qin_POINT347     01/01/2026  00:25:00  0.00472109
Qin_POINT347     01/01/2026  00:30:00  0.00782904
Qin_POINT347     01/01/2026  00:35:00  0.01175371
Qin_POINT347     01/01/2026  00:40:00  0.01564474
Qin_POINT347     01/01/2026  00:45:00  0.01296134
Qin_POINT347     01/01/2026  00:50:00  0.00922508
Qin_POINT347     01/01/2026  00:55:00  0.00616419
Qin_POINT347     01/01/2026  01:00:00  0.00412692
Qin_POINT347     01/01/2026  01:05:00  0.00277123
Qin_POINT347     01/01/2026  01:10:00  0.00175439
Qin_POINT347     01/01/2026  01:15:00  0.00073319
Qin_POINT347     01/01/2026  01:20:00  0.00023698
Qin_POINT347     01/01/2026  01:25:00  0.00004740
Qin_POINT347     01/01/2026  01:30:00  0.00000000
Qin_POINT347     01/01/2026  01:35:00  0.00000000
Qin_POINT347     01/01/2026  01:40:00  0.00000000
Qin_POINT347     01/01/2026  01:45:00  0.00000000
Qin_POINT347     01/01/2026  01:50:00  0.00000000
Qin_POINT347     01/01/2026  01:55:00  0.00000000
Qin_POINT347     01/01/2026  02:00:00  0.00000000
Qin_POINT347     01/01/2026  02:05:00  0.00000000
Qin_POINT347     01/01/2026  02:10:00  0.00000000
Qin_POINT347     01/01/2026  02:15:00  0.00000000
Qin_POINT347     01/01/2026  02:20:00  0.00000000
Qin_POINT347     01/01/2026  02:25:00  0.00000000
Qin_POINT347     01/01/2026  02:30:00  0.00000000
Qin_POINT347     01/01/2026  02:35:00  0.00000000
Qin_POINT347     01/01/2026  02:40:00  0.00000000
Qin_POINT347     01/01/2026  02:45:00  0.00000000
Qin_POINT347     01/01/2026  02:50:00  0.00000000
Qin_POINT347     01/01/2026  02:55:00  0.00000000
Qin_POINT347     01/01/2026  03:00:00  0.00000000
Qin_POINT348     01/01/2026  00:00:00  0.00000000
Qin_POINT348     01/01/2026  00:05:00  0.00023698
Qin_POINT348     01/01/2026  00:10:00  0.00061615
Qin_POINT348     01/01/2026  00:15:00  0.00127970
Qin_POINT348     01/01/2026  00:20:00  0.00224225
Qin_POINT348     01/01/2026  00:25:00  0.00472109
Qin_POINT348     01/01/2026  00:30:00  0.00782904
Qin_POINT348     01/01/2026  00:35:00  0.01175371
Qin_POINT348     01/01/2026  00:40:00  0.01564474
Qin_POINT348     01/01/2026  00:45:00  0.01296134
Qin_POINT348     01/01/2026  00:50:00  0.00922508
Qin_POINT348     01/01/2026  00:55:00  0.00616419
Qin_POINT348     01/01/2026  01:00:00  0.00412692
Qin_POINT348     01/01/2026  01:05:00  0.00277123
Qin_POINT348     01/01/2026  01:10:00  0.00175439
Qin_POINT348     01/01/2026  01:15:00  0.00073319
Qin_POINT348     01/01/2026  01:20:00  0.00023698
Qin_POINT348     01/01/2026  01:25:00  0.00004740
Qin_POINT348     01/01/2026  01:30:00  0.00000000
Qin_POINT348     01/01/2026  01:35:00  0.00000000
Qin_POINT348     01/01/2026  01:40:00  0.00000000
Qin_POINT348     01/01/2026  01:45:00  0.00000000
Qin_POINT348     01/01/2026  01:50:00  0.00000000
Qin_POINT348     01/01/2026  01:55:00  0.00000000
Qin_POINT348     01/01/2026  02:00:00  0.00000000
Qin_POINT348     01/01/2026  02:05:00  0.00000000
Qin_POINT348     01/01/2026  02:10:00  0.00000000
Qin_POINT348     01/01/2026  02:15:00  0.00000000
Qin_POINT348     01/01/2026  02:20:00  0.00000000
Qin_POINT348     01/01/2026  02:25:00  0.00000000
Qin_POINT348     01/01/2026  02:30:00  0.00000000
Qin_POINT348     01/01/2026  02:35:00  0.00000000
Qin_POINT348     01/01/2026  02:40:00  0.00000000
Qin_POINT348     01/01/2026  02:45:00  0.00000000
Qin_POINT348     01/01/2026  02:50:00  0.00000000
Qin_POINT348     01/01/2026  02:55:00  0.00000000
Qin_POINT348     01/01/2026  03:00:00  0.00000000
Qin_POINT349     01/01/2026  00:00:00  0.00000000
Qin_POINT349     01/01/2026  00:05:00  0.00023698
Qin_POINT349     01/01/2026  00:10:00  0.00061615
Qin_POINT349     01/01/2026  00:15:00  0.00127970
Qin_POINT349     01/01/2026  00:20:00  0.00224225
Qin_POINT349     01/01/2026  00:25:00  0.00472109
Qin_POINT349     01/01/2026  00:30:00  0.00782904
Qin_POINT349     01/01/2026  00:35:00  0.01175371
Qin_POINT349     01/01/2026  00:40:00  0.01564474
Qin_POINT349     01/01/2026  00:45:00  0.01296134
Qin_POINT349     01/01/2026  00:50:00  0.00922508
Qin_POINT349     01/01/2026  00:55:00  0.00616419
Qin_POINT349     01/01/2026  01:00:00  0.00412692
Qin_POINT349     01/01/2026  01:05:00  0.00277123
Qin_POINT349     01/01/2026  01:10:00  0.00175439
Qin_POINT349     01/01/2026  01:15:00  0.00073319
Qin_POINT349     01/01/2026  01:20:00  0.00023698
Qin_POINT349     01/01/2026  01:25:00  0.00004740
Qin_POINT349     01/01/2026  01:30:00  0.00000000
Qin_POINT349     01/01/2026  01:35:00  0.00000000
Qin_POINT349     01/01/2026  01:40:00  0.00000000
Qin_POINT349     01/01/2026  01:45:00  0.00000000
Qin_POINT349     01/01/2026  01:50:00  0.00000000
Qin_POINT349     01/01/2026  01:55:00  0.00000000
Qin_POINT349     01/01/2026  02:00:00  0.00000000
Qin_POINT349     01/01/2026  02:05:00  0.00000000
Qin_POINT349     01/01/2026  02:10:00  0.00000000
Qin_POINT349     01/01/2026  02:15:00  0.00000000
Qin_POINT349     01/01/2026  02:20:00  0.00000000
Qin_POINT349     01/01/2026  02:25:00  0.00000000
Qin_POINT349     01/01/2026  02:30:00  0.00000000
Qin_POINT349     01/01/2026  02:35:00  0.00000000
Qin_POINT349     01/01/2026  02:40:00  0.00000000
Qin_POINT349     01/01/2026  02:45:00  0.00000000
Qin_POINT349     01/01/2026  02:50:00  0.00000000
Qin_POINT349     01/01/2026  02:55:00  0.00000000
Qin_POINT349     01/01/2026  03:00:00  0.00000000
Qin_POINT351     01/01/2026  00:00:00  0.00000000
Qin_POINT351     01/01/2026  00:05:00  0.00023698
Qin_POINT351     01/01/2026  00:10:00  0.00061615
Qin_POINT351     01/01/2026  00:15:00  0.00127970
Qin_POINT351     01/01/2026  00:20:00  0.00224225
Qin_POINT351     01/01/2026  00:25:00  0.00472109
Qin_POINT351     01/01/2026  00:30:00  0.00782904
Qin_POINT351     01/01/2026  00:35:00  0.01175371
Qin_POINT351     01/01/2026  00:40:00  0.01564474
Qin_POINT351     01/01/2026  00:45:00  0.01296134
Qin_POINT351     01/01/2026  00:50:00  0.00922508
Qin_POINT351     01/01/2026  00:55:00  0.00616419
Qin_POINT351     01/01/2026  01:00:00  0.00412692
Qin_POINT351     01/01/2026  01:05:00  0.00277123
Qin_POINT351     01/01/2026  01:10:00  0.00175439
Qin_POINT351     01/01/2026  01:15:00  0.00073319
Qin_POINT351     01/01/2026  01:20:00  0.00023698
Qin_POINT351     01/01/2026  01:25:00  0.00004740
Qin_POINT351     01/01/2026  01:30:00  0.00000000
Qin_POINT351     01/01/2026  01:35:00  0.00000000
Qin_POINT351     01/01/2026  01:40:00  0.00000000
Qin_POINT351     01/01/2026  01:45:00  0.00000000
Qin_POINT351     01/01/2026  01:50:00  0.00000000
Qin_POINT351     01/01/2026  01:55:00  0.00000000
Qin_POINT351     01/01/2026  02:00:00  0.00000000
Qin_POINT351     01/01/2026  02:05:00  0.00000000
Qin_POINT351     01/01/2026  02:10:00  0.00000000
Qin_POINT351     01/01/2026  02:15:00  0.00000000
Qin_POINT351     01/01/2026  02:20:00  0.00000000
Qin_POINT351     01/01/2026  02:25:00  0.00000000
Qin_POINT351     01/01/2026  02:30:00  0.00000000
Qin_POINT351     01/01/2026  02:35:00  0.00000000
Qin_POINT351     01/01/2026  02:40:00  0.00000000
Qin_POINT351     01/01/2026  02:45:00  0.00000000
Qin_POINT351     01/01/2026  02:50:00  0.00000000
Qin_POINT351     01/01/2026  02:55:00  0.00000000
Qin_POINT351     01/01/2026  03:00:00  0.00000000
Qin_POINT353     01/01/2026  00:00:00  0.00000000
Qin_POINT353     01/01/2026  00:05:00  0.00023698
Qin_POINT353     01/01/2026  00:10:00  0.00061615
Qin_POINT353     01/01/2026  00:15:00  0.00127970
Qin_POINT353     01/01/2026  00:20:00  0.00224225
Qin_POINT353     01/01/2026  00:25:00  0.00472109
Qin_POINT353     01/01/2026  00:30:00  0.00782904
Qin_POINT353     01/01/2026  00:35:00  0.01175371
Qin_POINT353     01/01/2026  00:40:00  0.01564474
Qin_POINT353     01/01/2026  00:45:00  0.01296134
Qin_POINT353     01/01/2026  00:50:00  0.00922508
Qin_POINT353     01/01/2026  00:55:00  0.00616419
Qin_POINT353     01/01/2026  01:00:00  0.00412692
Qin_POINT353     01/01/2026  01:05:00  0.00277123
Qin_POINT353     01/01/2026  01:10:00  0.00175439
Qin_POINT353     01/01/2026  01:15:00  0.00073319
Qin_POINT353     01/01/2026  01:20:00  0.00023698
Qin_POINT353     01/01/2026  01:25:00  0.00004740
Qin_POINT353     01/01/2026  01:30:00  0.00000000
Qin_POINT353     01/01/2026  01:35:00  0.00000000
Qin_POINT353     01/01/2026  01:40:00  0.00000000
Qin_POINT353     01/01/2026  01:45:00  0.00000000
Qin_POINT353     01/01/2026  01:50:00  0.00000000
Qin_POINT353     01/01/2026  01:55:00  0.00000000
Qin_POINT353     01/01/2026  02:00:00  0.00000000
Qin_POINT353     01/01/2026  02:05:00  0.00000000
Qin_POINT353     01/01/2026  02:10:00  0.00000000
Qin_POINT353     01/01/2026  02:15:00  0.00000000
Qin_POINT353     01/01/2026  02:20:00  0.00000000
Qin_POINT353     01/01/2026  02:25:00  0.00000000
Qin_POINT353     01/01/2026  02:30:00  0.00000000
Qin_POINT353     01/01/2026  02:35:00  0.00000000
Qin_POINT353     01/01/2026  02:40:00  0.00000000
Qin_POINT353     01/01/2026  02:45:00  0.00000000
Qin_POINT353     01/01/2026  02:50:00  0.00000000
Qin_POINT353     01/01/2026  02:55:00  0.00000000
Qin_POINT353     01/01/2026  03:00:00  0.00000000
Qin_POINT354     01/01/2026  00:00:00  0.00000000
Qin_POINT354     01/01/2026  00:05:00  0.00023698
Qin_POINT354     01/01/2026  00:10:00  0.00061615
Qin_POINT354     01/01/2026  00:15:00  0.00127970
Qin_POINT354     01/01/2026  00:20:00  0.00224225
Qin_POINT354     01/01/2026  00:25:00  0.00472109
Qin_POINT354     01/01/2026  00:30:00  0.00782904
Qin_POINT354     01/01/2026  00:35:00  0.01175371
Qin_POINT354     01/01/2026  00:40:00  0.01564474
Qin_POINT354     01/01/2026  00:45:00  0.01296134
Qin_POINT354     01/01/2026  00:50:00  0.00922508
Qin_POINT354     01/01/2026  00:55:00  0.00616419
Qin_POINT354     01/01/2026  01:00:00  0.00412692
Qin_POINT354     01/01/2026  01:05:00  0.00277123
Qin_POINT354     01/01/2026  01:10:00  0.00175439
Qin_POINT354     01/01/2026  01:15:00  0.00073319
Qin_POINT354     01/01/2026  01:20:00  0.00023698
Qin_POINT354     01/01/2026  01:25:00  0.00004740
Qin_POINT354     01/01/2026  01:30:00  0.00000000
Qin_POINT354     01/01/2026  01:35:00  0.00000000
Qin_POINT354     01/01/2026  01:40:00  0.00000000
Qin_POINT354     01/01/2026  01:45:00  0.00000000
Qin_POINT354     01/01/2026  01:50:00  0.00000000
Qin_POINT354     01/01/2026  01:55:00  0.00000000
Qin_POINT354     01/01/2026  02:00:00  0.00000000
Qin_POINT354     01/01/2026  02:05:00  0.00000000
Qin_POINT354     01/01/2026  02:10:00  0.00000000
Qin_POINT354     01/01/2026  02:15:00  0.00000000
Qin_POINT354     01/01/2026  02:20:00  0.00000000
Qin_POINT354     01/01/2026  02:25:00  0.00000000
Qin_POINT354     01/01/2026  02:30:00  0.00000000
Qin_POINT354     01/01/2026  02:35:00  0.00000000
Qin_POINT354     01/01/2026  02:40:00  0.00000000
Qin_POINT354     01/01/2026  02:45:00  0.00000000
Qin_POINT354     01/01/2026  02:50:00  0.00000000
Qin_POINT354     01/01/2026  02:55:00  0.00000000
Qin_POINT354     01/01/2026  03:00:00  0.00000000
Qin_POINT355     01/01/2026  00:00:00  0.00000000
Qin_POINT355     01/01/2026  00:05:00  0.00023698
Qin_POINT355     01/01/2026  00:10:00  0.00061615
Qin_POINT355     01/01/2026  00:15:00  0.00127970
Qin_POINT355     01/01/2026  00:20:00  0.00224225
Qin_POINT355     01/01/2026  00:25:00  0.00472109
Qin_POINT355     01/01/2026  00:30:00  0.00782904
Qin_POINT355     01/01/2026  00:35:00  0.01175371
Qin_POINT355     01/01/2026  00:40:00  0.01564474
Qin_POINT355     01/01/2026  00:45:00  0.01296134
Qin_POINT355     01/01/2026  00:50:00  0.00922508
Qin_POINT355     01/01/2026  00:55:00  0.00616419
Qin_POINT355     01/01/2026  01:00:00  0.00412692
Qin_POINT355     01/01/2026  01:05:00  0.00277123
Qin_POINT355     01/01/2026  01:10:00  0.00175439
Qin_POINT355     01/01/2026  01:15:00  0.00073319
Qin_POINT355     01/01/2026  01:20:00  0.00023698
Qin_POINT355     01/01/2026  01:25:00  0.00004740
Qin_POINT355     01/01/2026  01:30:00  0.00000000
Qin_POINT355     01/01/2026  01:35:00  0.00000000
Qin_POINT355     01/01/2026  01:40:00  0.00000000
Qin_POINT355     01/01/2026  01:45:00  0.00000000
Qin_POINT355     01/01/2026  01:50:00  0.00000000
Qin_POINT355     01/01/2026  01:55:00  0.00000000
Qin_POINT355     01/01/2026  02:00:00  0.00000000
Qin_POINT355     01/01/2026  02:05:00  0.00000000
Qin_POINT355     01/01/2026  02:10:00  0.00000000
Qin_POINT355     01/01/2026  02:15:00  0.00000000
Qin_POINT355     01/01/2026  02:20:00  0.00000000
Qin_POINT355     01/01/2026  02:25:00  0.00000000
Qin_POINT355     01/01/2026  02:30:00  0.00000000
Qin_POINT355     01/01/2026  02:35:00  0.00000000
Qin_POINT355     01/01/2026  02:40:00  0.00000000
Qin_POINT355     01/01/2026  02:45:00  0.00000000
Qin_POINT355     01/01/2026  02:50:00  0.00000000
Qin_POINT355     01/01/2026  02:55:00  0.00000000
Qin_POINT355     01/01/2026  03:00:00  0.00000000
Qin_POINT356     01/01/2026  00:00:00  0.00000000
Qin_POINT356     01/01/2026  00:05:00  0.00023698
Qin_POINT356     01/01/2026  00:10:00  0.00061615
Qin_POINT356     01/01/2026  00:15:00  0.00127970
Qin_POINT356     01/01/2026  00:20:00  0.00224225
Qin_POINT356     01/01/2026  00:25:00  0.00472109
Qin_POINT356     01/01/2026  00:30:00  0.00782904
Qin_POINT356     01/01/2026  00:35:00  0.01175371
Qin_POINT356     01/01/2026  00:40:00  0.01564474
Qin_POINT356     01/01/2026  00:45:00  0.01296134
Qin_POINT356     01/01/2026  00:50:00  0.00922508
Qin_POINT356     01/01/2026  00:55:00  0.00616419
Qin_POINT356     01/01/2026  01:00:00  0.00412692
Qin_POINT356     01/01/2026  01:05:00  0.00277123
Qin_POINT356     01/01/2026  01:10:00  0.00175439
Qin_POINT356     01/01/2026  01:15:00  0.00073319
Qin_POINT356     01/01/2026  01:20:00  0.00023698
Qin_POINT356     01/01/2026  01:25:00  0.00004740
Qin_POINT356     01/01/2026  01:30:00  0.00000000
Qin_POINT356     01/01/2026  01:35:00  0.00000000
Qin_POINT356     01/01/2026  01:40:00  0.00000000
Qin_POINT356     01/01/2026  01:45:00  0.00000000
Qin_POINT356     01/01/2026  01:50:00  0.00000000
Qin_POINT356     01/01/2026  01:55:00  0.00000000
Qin_POINT356     01/01/2026  02:00:00  0.00000000
Qin_POINT356     01/01/2026  02:05:00  0.00000000
Qin_POINT356     01/01/2026  02:10:00  0.00000000
Qin_POINT356     01/01/2026  02:15:00  0.00000000
Qin_POINT356     01/01/2026  02:20:00  0.00000000
Qin_POINT356     01/01/2026  02:25:00  0.00000000
Qin_POINT356     01/01/2026  02:30:00  0.00000000
Qin_POINT356     01/01/2026  02:35:00  0.00000000
Qin_POINT356     01/01/2026  02:40:00  0.00000000
Qin_POINT356     01/01/2026  02:45:00  0.00000000
Qin_POINT356     01/01/2026  02:50:00  0.00000000
Qin_POINT356     01/01/2026  02:55:00  0.00000000
Qin_POINT356     01/01/2026  03:00:00  0.00000000
Qin_POINT357     01/01/2026  00:00:00  0.00000000
Qin_POINT357     01/01/2026  00:05:00  0.00023698
Qin_POINT357     01/01/2026  00:10:00  0.00061615
Qin_POINT357     01/01/2026  00:15:00  0.00127970
Qin_POINT357     01/01/2026  00:20:00  0.00224225
Qin_POINT357     01/01/2026  00:25:00  0.00472109
Qin_POINT357     01/01/2026  00:30:00  0.00782904
Qin_POINT357     01/01/2026  00:35:00  0.01175371
Qin_POINT357     01/01/2026  00:40:00  0.01564474
Qin_POINT357     01/01/2026  00:45:00  0.01296134
Qin_POINT357     01/01/2026  00:50:00  0.00922508
Qin_POINT357     01/01/2026  00:55:00  0.00616419
Qin_POINT357     01/01/2026  01:00:00  0.00412692
Qin_POINT357     01/01/2026  01:05:00  0.00277123
Qin_POINT357     01/01/2026  01:10:00  0.00175439
Qin_POINT357     01/01/2026  01:15:00  0.00073319
Qin_POINT357     01/01/2026  01:20:00  0.00023698
Qin_POINT357     01/01/2026  01:25:00  0.00004740
Qin_POINT357     01/01/2026  01:30:00  0.00000000
Qin_POINT357     01/01/2026  01:35:00  0.00000000
Qin_POINT357     01/01/2026  01:40:00  0.00000000
Qin_POINT357     01/01/2026  01:45:00  0.00000000
Qin_POINT357     01/01/2026  01:50:00  0.00000000
Qin_POINT357     01/01/2026  01:55:00  0.00000000
Qin_POINT357     01/01/2026  02:00:00  0.00000000
Qin_POINT357     01/01/2026  02:05:00  0.00000000
Qin_POINT357     01/01/2026  02:10:00  0.00000000
Qin_POINT357     01/01/2026  02:15:00  0.00000000
Qin_POINT357     01/01/2026  02:20:00  0.00000000
Qin_POINT357     01/01/2026  02:25:00  0.00000000
Qin_POINT357     01/01/2026  02:30:00  0.00000000
Qin_POINT357     01/01/2026  02:35:00  0.00000000
Qin_POINT357     01/01/2026  02:40:00  0.00000000
Qin_POINT357     01/01/2026  02:45:00  0.00000000
Qin_POINT357     01/01/2026  02:50:00  0.00000000
Qin_POINT357     01/01/2026  02:55:00  0.00000000
Qin_POINT357     01/01/2026  03:00:00  0.00000000
Qin_POINT358     01/01/2026  00:00:00  0.00000000
Qin_POINT358     01/01/2026  00:05:00  0.00023698
Qin_POINT358     01/01/2026  00:10:00  0.00061615
Qin_POINT358     01/01/2026  00:15:00  0.00127970
Qin_POINT358     01/01/2026  00:20:00  0.00224225
Qin_POINT358     01/01/2026  00:25:00  0.00472109
Qin_POINT358     01/01/2026  00:30:00  0.00782904
Qin_POINT358     01/01/2026  00:35:00  0.01175371
Qin_POINT358     01/01/2026  00:40:00  0.01564474
Qin_POINT358     01/01/2026  00:45:00  0.01296134
Qin_POINT358     01/01/2026  00:50:00  0.00922508
Qin_POINT358     01/01/2026  00:55:00  0.00616419
Qin_POINT358     01/01/2026  01:00:00  0.00412692
Qin_POINT358     01/01/2026  01:05:00  0.00277123
Qin_POINT358     01/01/2026  01:10:00  0.00175439
Qin_POINT358     01/01/2026  01:15:00  0.00073319
Qin_POINT358     01/01/2026  01:20:00  0.00023698
Qin_POINT358     01/01/2026  01:25:00  0.00004740
Qin_POINT358     01/01/2026  01:30:00  0.00000000
Qin_POINT358     01/01/2026  01:35:00  0.00000000
Qin_POINT358     01/01/2026  01:40:00  0.00000000
Qin_POINT358     01/01/2026  01:45:00  0.00000000
Qin_POINT358     01/01/2026  01:50:00  0.00000000
Qin_POINT358     01/01/2026  01:55:00  0.00000000
Qin_POINT358     01/01/2026  02:00:00  0.00000000
Qin_POINT358     01/01/2026  02:05:00  0.00000000
Qin_POINT358     01/01/2026  02:10:00  0.00000000
Qin_POINT358     01/01/2026  02:15:00  0.00000000
Qin_POINT358     01/01/2026  02:20:00  0.00000000
Qin_POINT358     01/01/2026  02:25:00  0.00000000
Qin_POINT358     01/01/2026  02:30:00  0.00000000
Qin_POINT358     01/01/2026  02:35:00  0.00000000
Qin_POINT358     01/01/2026  02:40:00  0.00000000
Qin_POINT358     01/01/2026  02:45:00  0.00000000
Qin_POINT358     01/01/2026  02:50:00  0.00000000
Qin_POINT358     01/01/2026  02:55:00  0.00000000
Qin_POINT358     01/01/2026  03:00:00  0.00000000
Qin_POINT359     01/01/2026  00:00:00  0.00000000
Qin_POINT359     01/01/2026  00:05:00  0.00023698
Qin_POINT359     01/01/2026  00:10:00  0.00061615
Qin_POINT359     01/01/2026  00:15:00  0.00127970
Qin_POINT359     01/01/2026  00:20:00  0.00224225
Qin_POINT359     01/01/2026  00:25:00  0.00472109
Qin_POINT359     01/01/2026  00:30:00  0.00782904
Qin_POINT359     01/01/2026  00:35:00  0.01175371
Qin_POINT359     01/01/2026  00:40:00  0.01564474
Qin_POINT359     01/01/2026  00:45:00  0.01296134
Qin_POINT359     01/01/2026  00:50:00  0.00922508
Qin_POINT359     01/01/2026  00:55:00  0.00616419
Qin_POINT359     01/01/2026  01:00:00  0.00412692
Qin_POINT359     01/01/2026  01:05:00  0.00277123
Qin_POINT359     01/01/2026  01:10:00  0.00175439
Qin_POINT359     01/01/2026  01:15:00  0.00073319
Qin_POINT359     01/01/2026  01:20:00  0.00023698
Qin_POINT359     01/01/2026  01:25:00  0.00004740
Qin_POINT359     01/01/2026  01:30:00  0.00000000
Qin_POINT359     01/01/2026  01:35:00  0.00000000
Qin_POINT359     01/01/2026  01:40:00  0.00000000
Qin_POINT359     01/01/2026  01:45:00  0.00000000
Qin_POINT359     01/01/2026  01:50:00  0.00000000
Qin_POINT359     01/01/2026  01:55:00  0.00000000
Qin_POINT359     01/01/2026  02:00:00  0.00000000
Qin_POINT359     01/01/2026  02:05:00  0.00000000
Qin_POINT359     01/01/2026  02:10:00  0.00000000
Qin_POINT359     01/01/2026  02:15:00  0.00000000
Qin_POINT359     01/01/2026  02:20:00  0.00000000
Qin_POINT359     01/01/2026  02:25:00  0.00000000
Qin_POINT359     01/01/2026  02:30:00  0.00000000
Qin_POINT359     01/01/2026  02:35:00  0.00000000
Qin_POINT359     01/01/2026  02:40:00  0.00000000
Qin_POINT359     01/01/2026  02:45:00  0.00000000
Qin_POINT359     01/01/2026  02:50:00  0.00000000
Qin_POINT359     01/01/2026  02:55:00  0.00000000
Qin_POINT359     01/01/2026  03:00:00  0.00000000
Qin_POINT360     01/01/2026  00:00:00  0.00000000
Qin_POINT360     01/01/2026  00:05:00  0.00023698
Qin_POINT360     01/01/2026  00:10:00  0.00061615
Qin_POINT360     01/01/2026  00:15:00  0.00127970
Qin_POINT360     01/01/2026  00:20:00  0.00224225
Qin_POINT360     01/01/2026  00:25:00  0.00472109
Qin_POINT360     01/01/2026  00:30:00  0.00782904
Qin_POINT360     01/01/2026  00:35:00  0.01175371
Qin_POINT360     01/01/2026  00:40:00  0.01564474
Qin_POINT360     01/01/2026  00:45:00  0.01296134
Qin_POINT360     01/01/2026  00:50:00  0.00922508
Qin_POINT360     01/01/2026  00:55:00  0.00616419
Qin_POINT360     01/01/2026  01:00:00  0.00412692
Qin_POINT360     01/01/2026  01:05:00  0.00277123
Qin_POINT360     01/01/2026  01:10:00  0.00175439
Qin_POINT360     01/01/2026  01:15:00  0.00073319
Qin_POINT360     01/01/2026  01:20:00  0.00023698
Qin_POINT360     01/01/2026  01:25:00  0.00004740
Qin_POINT360     01/01/2026  01:30:00  0.00000000
Qin_POINT360     01/01/2026  01:35:00  0.00000000
Qin_POINT360     01/01/2026  01:40:00  0.00000000
Qin_POINT360     01/01/2026  01:45:00  0.00000000
Qin_POINT360     01/01/2026  01:50:00  0.00000000
Qin_POINT360     01/01/2026  01:55:00  0.00000000
Qin_POINT360     01/01/2026  02:00:00  0.00000000
Qin_POINT360     01/01/2026  02:05:00  0.00000000
Qin_POINT360     01/01/2026  02:10:00  0.00000000
Qin_POINT360     01/01/2026  02:15:00  0.00000000
Qin_POINT360     01/01/2026  02:20:00  0.00000000
Qin_POINT360     01/01/2026  02:25:00  0.00000000
Qin_POINT360     01/01/2026  02:30:00  0.00000000
Qin_POINT360     01/01/2026  02:35:00  0.00000000
Qin_POINT360     01/01/2026  02:40:00  0.00000000
Qin_POINT360     01/01/2026  02:45:00  0.00000000
Qin_POINT360     01/01/2026  02:50:00  0.00000000
Qin_POINT360     01/01/2026  02:55:00  0.00000000
Qin_POINT360     01/01/2026  03:00:00  0.00000000
Qin_POINT361     01/01/2026  00:00:00  0.00000000
Qin_POINT361     01/01/2026  00:05:00  0.00023698
Qin_POINT361     01/01/2026  00:10:00  0.00061615
Qin_POINT361     01/01/2026  00:15:00  0.00127970
Qin_POINT361     01/01/2026  00:20:00  0.00224225
Qin_POINT361     01/01/2026  00:25:00  0.00472109
Qin_POINT361     01/01/2026  00:30:00  0.00782904
Qin_POINT361     01/01/2026  00:35:00  0.01175371
Qin_POINT361     01/01/2026  00:40:00  0.01564474
Qin_POINT361     01/01/2026  00:45:00  0.01296134
Qin_POINT361     01/01/2026  00:50:00  0.00922508
Qin_POINT361     01/01/2026  00:55:00  0.00616419
Qin_POINT361     01/01/2026  01:00:00  0.00412692
Qin_POINT361     01/01/2026  01:05:00  0.00277123
Qin_POINT361     01/01/2026  01:10:00  0.00175439
Qin_POINT361     01/01/2026  01:15:00  0.00073319
Qin_POINT361     01/01/2026  01:20:00  0.00023698
Qin_POINT361     01/01/2026  01:25:00  0.00004740
Qin_POINT361     01/01/2026  01:30:00  0.00000000
Qin_POINT361     01/01/2026  01:35:00  0.00000000
Qin_POINT361     01/01/2026  01:40:00  0.00000000
Qin_POINT361     01/01/2026  01:45:00  0.00000000
Qin_POINT361     01/01/2026  01:50:00  0.00000000
Qin_POINT361     01/01/2026  01:55:00  0.00000000
Qin_POINT361     01/01/2026  02:00:00  0.00000000
Qin_POINT361     01/01/2026  02:05:00  0.00000000
Qin_POINT361     01/01/2026  02:10:00  0.00000000
Qin_POINT361     01/01/2026  02:15:00  0.00000000
Qin_POINT361     01/01/2026  02:20:00  0.00000000
Qin_POINT361     01/01/2026  02:25:00  0.00000000
Qin_POINT361     01/01/2026  02:30:00  0.00000000
Qin_POINT361     01/01/2026  02:35:00  0.00000000
Qin_POINT361     01/01/2026  02:40:00  0.00000000
Qin_POINT361     01/01/2026  02:45:00  0.00000000
Qin_POINT361     01/01/2026  02:50:00  0.00000000
Qin_POINT361     01/01/2026  02:55:00  0.00000000
Qin_POINT361     01/01/2026  03:00:00  0.00000000
Qin_POINT363     01/01/2026  00:00:00  0.00000000
Qin_POINT363     01/01/2026  00:05:00  0.00023698
Qin_POINT363     01/01/2026  00:10:00  0.00061615
Qin_POINT363     01/01/2026  00:15:00  0.00127970
Qin_POINT363     01/01/2026  00:20:00  0.00224225
Qin_POINT363     01/01/2026  00:25:00  0.00472109
Qin_POINT363     01/01/2026  00:30:00  0.00782904
Qin_POINT363     01/01/2026  00:35:00  0.01175371
Qin_POINT363     01/01/2026  00:40:00  0.01564474
Qin_POINT363     01/01/2026  00:45:00  0.01296134
Qin_POINT363     01/01/2026  00:50:00  0.00922508
Qin_POINT363     01/01/2026  00:55:00  0.00616419
Qin_POINT363     01/01/2026  01:00:00  0.00412692
Qin_POINT363     01/01/2026  01:05:00  0.00277123
Qin_POINT363     01/01/2026  01:10:00  0.00175439
Qin_POINT363     01/01/2026  01:15:00  0.00073319
Qin_POINT363     01/01/2026  01:20:00  0.00023698
Qin_POINT363     01/01/2026  01:25:00  0.00004740
Qin_POINT363     01/01/2026  01:30:00  0.00000000
Qin_POINT363     01/01/2026  01:35:00  0.00000000
Qin_POINT363     01/01/2026  01:40:00  0.00000000
Qin_POINT363     01/01/2026  01:45:00  0.00000000
Qin_POINT363     01/01/2026  01:50:00  0.00000000
Qin_POINT363     01/01/2026  01:55:00  0.00000000
Qin_POINT363     01/01/2026  02:00:00  0.00000000
Qin_POINT363     01/01/2026  02:05:00  0.00000000
Qin_POINT363     01/01/2026  02:10:00  0.00000000
Qin_POINT363     01/01/2026  02:15:00  0.00000000
Qin_POINT363     01/01/2026  02:20:00  0.00000000
Qin_POINT363     01/01/2026  02:25:00  0.00000000
Qin_POINT363     01/01/2026  02:30:00  0.00000000
Qin_POINT363     01/01/2026  02:35:00  0.00000000
Qin_POINT363     01/01/2026  02:40:00  0.00000000
Qin_POINT363     01/01/2026  02:45:00  0.00000000
Qin_POINT363     01/01/2026  02:50:00  0.00000000
Qin_POINT363     01/01/2026  02:55:00  0.00000000
Qin_POINT363     01/01/2026  03:00:00  0.00000000
Qin_POINT365     01/01/2026  00:00:00  0.00000000
Qin_POINT365     01/01/2026  00:05:00  0.00023698
Qin_POINT365     01/01/2026  00:10:00  0.00061615
Qin_POINT365     01/01/2026  00:15:00  0.00127970
Qin_POINT365     01/01/2026  00:20:00  0.00224225
Qin_POINT365     01/01/2026  00:25:00  0.00472109
Qin_POINT365     01/01/2026  00:30:00  0.00782904
Qin_POINT365     01/01/2026  00:35:00  0.01175371
Qin_POINT365     01/01/2026  00:40:00  0.01564474
Qin_POINT365     01/01/2026  00:45:00  0.01296134
Qin_POINT365     01/01/2026  00:50:00  0.00922508
Qin_POINT365     01/01/2026  00:55:00  0.00616419
Qin_POINT365     01/01/2026  01:00:00  0.00412692
Qin_POINT365     01/01/2026  01:05:00  0.00277123
Qin_POINT365     01/01/2026  01:10:00  0.00175439
Qin_POINT365     01/01/2026  01:15:00  0.00073319
Qin_POINT365     01/01/2026  01:20:00  0.00023698
Qin_POINT365     01/01/2026  01:25:00  0.00004740
Qin_POINT365     01/01/2026  01:30:00  0.00000000
Qin_POINT365     01/01/2026  01:35:00  0.00000000
Qin_POINT365     01/01/2026  01:40:00  0.00000000
Qin_POINT365     01/01/2026  01:45:00  0.00000000
Qin_POINT365     01/01/2026  01:50:00  0.00000000
Qin_POINT365     01/01/2026  01:55:00  0.00000000
Qin_POINT365     01/01/2026  02:00:00  0.00000000
Qin_POINT365     01/01/2026  02:05:00  0.00000000
Qin_POINT365     01/01/2026  02:10:00  0.00000000
Qin_POINT365     01/01/2026  02:15:00  0.00000000
Qin_POINT365     01/01/2026  02:20:00  0.00000000
Qin_POINT365     01/01/2026  02:25:00  0.00000000
Qin_POINT365     01/01/2026  02:30:00  0.00000000
Qin_POINT365     01/01/2026  02:35:00  0.00000000
Qin_POINT365     01/01/2026  02:40:00  0.00000000
Qin_POINT365     01/01/2026  02:45:00  0.00000000
Qin_POINT365     01/01/2026  02:50:00  0.00000000
Qin_POINT365     01/01/2026  02:55:00  0.00000000
Qin_POINT365     01/01/2026  03:00:00  0.00000000
Qin_POINT367     01/01/2026  00:00:00  0.00000000
Qin_POINT367     01/01/2026  00:05:00  0.00023698
Qin_POINT367     01/01/2026  00:10:00  0.00061615
Qin_POINT367     01/01/2026  00:15:00  0.00127970
Qin_POINT367     01/01/2026  00:20:00  0.00224225
Qin_POINT367     01/01/2026  00:25:00  0.00472109
Qin_POINT367     01/01/2026  00:30:00  0.00782904
Qin_POINT367     01/01/2026  00:35:00  0.01175371
Qin_POINT367     01/01/2026  00:40:00  0.01564474
Qin_POINT367     01/01/2026  00:45:00  0.01296134
Qin_POINT367     01/01/2026  00:50:00  0.00922508
Qin_POINT367     01/01/2026  00:55:00  0.00616419
Qin_POINT367     01/01/2026  01:00:00  0.00412692
Qin_POINT367     01/01/2026  01:05:00  0.00277123
Qin_POINT367     01/01/2026  01:10:00  0.00175439
Qin_POINT367     01/01/2026  01:15:00  0.00073319
Qin_POINT367     01/01/2026  01:20:00  0.00023698
Qin_POINT367     01/01/2026  01:25:00  0.00004740
Qin_POINT367     01/01/2026  01:30:00  0.00000000
Qin_POINT367     01/01/2026  01:35:00  0.00000000
Qin_POINT367     01/01/2026  01:40:00  0.00000000
Qin_POINT367     01/01/2026  01:45:00  0.00000000
Qin_POINT367     01/01/2026  01:50:00  0.00000000
Qin_POINT367     01/01/2026  01:55:00  0.00000000
Qin_POINT367     01/01/2026  02:00:00  0.00000000
Qin_POINT367     01/01/2026  02:05:00  0.00000000
Qin_POINT367     01/01/2026  02:10:00  0.00000000
Qin_POINT367     01/01/2026  02:15:00  0.00000000
Qin_POINT367     01/01/2026  02:20:00  0.00000000
Qin_POINT367     01/01/2026  02:25:00  0.00000000
Qin_POINT367     01/01/2026  02:30:00  0.00000000
Qin_POINT367     01/01/2026  02:35:00  0.00000000
Qin_POINT367     01/01/2026  02:40:00  0.00000000
Qin_POINT367     01/01/2026  02:45:00  0.00000000
Qin_POINT367     01/01/2026  02:50:00  0.00000000
Qin_POINT367     01/01/2026  02:55:00  0.00000000
Qin_POINT367     01/01/2026  03:00:00  0.00000000
Qin_POINT368     01/01/2026  00:00:00  0.00000000
Qin_POINT368     01/01/2026  00:05:00  0.00023698
Qin_POINT368     01/01/2026  00:10:00  0.00061615
Qin_POINT368     01/01/2026  00:15:00  0.00127970
Qin_POINT368     01/01/2026  00:20:00  0.00224225
Qin_POINT368     01/01/2026  00:25:00  0.00472109
Qin_POINT368     01/01/2026  00:30:00  0.00782904
Qin_POINT368     01/01/2026  00:35:00  0.01175371
Qin_POINT368     01/01/2026  00:40:00  0.01564474
Qin_POINT368     01/01/2026  00:45:00  0.01296134
Qin_POINT368     01/01/2026  00:50:00  0.00922508
Qin_POINT368     01/01/2026  00:55:00  0.00616419
Qin_POINT368     01/01/2026  01:00:00  0.00412692
Qin_POINT368     01/01/2026  01:05:00  0.00277123
Qin_POINT368     01/01/2026  01:10:00  0.00175439
Qin_POINT368     01/01/2026  01:15:00  0.00073319
Qin_POINT368     01/01/2026  01:20:00  0.00023698
Qin_POINT368     01/01/2026  01:25:00  0.00004740
Qin_POINT368     01/01/2026  01:30:00  0.00000000
Qin_POINT368     01/01/2026  01:35:00  0.00000000
Qin_POINT368     01/01/2026  01:40:00  0.00000000
Qin_POINT368     01/01/2026  01:45:00  0.00000000
Qin_POINT368     01/01/2026  01:50:00  0.00000000
Qin_POINT368     01/01/2026  01:55:00  0.00000000
Qin_POINT368     01/01/2026  02:00:00  0.00000000
Qin_POINT368     01/01/2026  02:05:00  0.00000000
Qin_POINT368     01/01/2026  02:10:00  0.00000000
Qin_POINT368     01/01/2026  02:15:00  0.00000000
Qin_POINT368     01/01/2026  02:20:00  0.00000000
Qin_POINT368     01/01/2026  02:25:00  0.00000000
Qin_POINT368     01/01/2026  02:30:00  0.00000000
Qin_POINT368     01/01/2026  02:35:00  0.00000000
Qin_POINT368     01/01/2026  02:40:00  0.00000000
Qin_POINT368     01/01/2026  02:45:00  0.00000000
Qin_POINT368     01/01/2026  02:50:00  0.00000000
Qin_POINT368     01/01/2026  02:55:00  0.00000000
Qin_POINT368     01/01/2026  03:00:00  0.00000000
Qin_POINT369     01/01/2026  00:00:00  0.00000000
Qin_POINT369     01/01/2026  00:05:00  0.00023698
Qin_POINT369     01/01/2026  00:10:00  0.00061615
Qin_POINT369     01/01/2026  00:15:00  0.00127970
Qin_POINT369     01/01/2026  00:20:00  0.00224225
Qin_POINT369     01/01/2026  00:25:00  0.00472109
Qin_POINT369     01/01/2026  00:30:00  0.00782904
Qin_POINT369     01/01/2026  00:35:00  0.01175371
Qin_POINT369     01/01/2026  00:40:00  0.01564474
Qin_POINT369     01/01/2026  00:45:00  0.01296134
Qin_POINT369     01/01/2026  00:50:00  0.00922508
Qin_POINT369     01/01/2026  00:55:00  0.00616419
Qin_POINT369     01/01/2026  01:00:00  0.00412692
Qin_POINT369     01/01/2026  01:05:00  0.00277123
Qin_POINT369     01/01/2026  01:10:00  0.00175439
Qin_POINT369     01/01/2026  01:15:00  0.00073319
Qin_POINT369     01/01/2026  01:20:00  0.00023698
Qin_POINT369     01/01/2026  01:25:00  0.00004740
Qin_POINT369     01/01/2026  01:30:00  0.00000000
Qin_POINT369     01/01/2026  01:35:00  0.00000000
Qin_POINT369     01/01/2026  01:40:00  0.00000000
Qin_POINT369     01/01/2026  01:45:00  0.00000000
Qin_POINT369     01/01/2026  01:50:00  0.00000000
Qin_POINT369     01/01/2026  01:55:00  0.00000000
Qin_POINT369     01/01/2026  02:00:00  0.00000000
Qin_POINT369     01/01/2026  02:05:00  0.00000000
Qin_POINT369     01/01/2026  02:10:00  0.00000000
Qin_POINT369     01/01/2026  02:15:00  0.00000000
Qin_POINT369     01/01/2026  02:20:00  0.00000000
Qin_POINT369     01/01/2026  02:25:00  0.00000000
Qin_POINT369     01/01/2026  02:30:00  0.00000000
Qin_POINT369     01/01/2026  02:35:00  0.00000000
Qin_POINT369     01/01/2026  02:40:00  0.00000000
Qin_POINT369     01/01/2026  02:45:00  0.00000000
Qin_POINT369     01/01/2026  02:50:00  0.00000000
Qin_POINT369     01/01/2026  02:55:00  0.00000000
Qin_POINT369     01/01/2026  03:00:00  0.00000000
Qin_POINT370     01/01/2026  00:00:00  0.00000000
Qin_POINT370     01/01/2026  00:05:00  0.00023698
Qin_POINT370     01/01/2026  00:10:00  0.00061615
Qin_POINT370     01/01/2026  00:15:00  0.00127970
Qin_POINT370     01/01/2026  00:20:00  0.00224225
Qin_POINT370     01/01/2026  00:25:00  0.00472109
Qin_POINT370     01/01/2026  00:30:00  0.00782904
Qin_POINT370     01/01/2026  00:35:00  0.01175371
Qin_POINT370     01/01/2026  00:40:00  0.01564474
Qin_POINT370     01/01/2026  00:45:00  0.01296134
Qin_POINT370     01/01/2026  00:50:00  0.00922508
Qin_POINT370     01/01/2026  00:55:00  0.00616419
Qin_POINT370     01/01/2026  01:00:00  0.00412692
Qin_POINT370     01/01/2026  01:05:00  0.00277123
Qin_POINT370     01/01/2026  01:10:00  0.00175439
Qin_POINT370     01/01/2026  01:15:00  0.00073319
Qin_POINT370     01/01/2026  01:20:00  0.00023698
Qin_POINT370     01/01/2026  01:25:00  0.00004740
Qin_POINT370     01/01/2026  01:30:00  0.00000000
Qin_POINT370     01/01/2026  01:35:00  0.00000000
Qin_POINT370     01/01/2026  01:40:00  0.00000000
Qin_POINT370     01/01/2026  01:45:00  0.00000000
Qin_POINT370     01/01/2026  01:50:00  0.00000000
Qin_POINT370     01/01/2026  01:55:00  0.00000000
Qin_POINT370     01/01/2026  02:00:00  0.00000000
Qin_POINT370     01/01/2026  02:05:00  0.00000000
Qin_POINT370     01/01/2026  02:10:00  0.00000000
Qin_POINT370     01/01/2026  02:15:00  0.00000000
Qin_POINT370     01/01/2026  02:20:00  0.00000000
Qin_POINT370     01/01/2026  02:25:00  0.00000000
Qin_POINT370     01/01/2026  02:30:00  0.00000000
Qin_POINT370     01/01/2026  02:35:00  0.00000000
Qin_POINT370     01/01/2026  02:40:00  0.00000000
Qin_POINT370     01/01/2026  02:45:00  0.00000000
Qin_POINT370     01/01/2026  02:50:00  0.00000000
Qin_POINT370     01/01/2026  02:55:00  0.00000000
Qin_POINT370     01/01/2026  03:00:00  0.00000000
Qin_POINT371     01/01/2026  00:00:00  0.00000000
Qin_POINT371     01/01/2026  00:05:00  0.00023698
Qin_POINT371     01/01/2026  00:10:00  0.00061615
Qin_POINT371     01/01/2026  00:15:00  0.00127970
Qin_POINT371     01/01/2026  00:20:00  0.00224225
Qin_POINT371     01/01/2026  00:25:00  0.00472109
Qin_POINT371     01/01/2026  00:30:00  0.00782904
Qin_POINT371     01/01/2026  00:35:00  0.01175371
Qin_POINT371     01/01/2026  00:40:00  0.01564474
Qin_POINT371     01/01/2026  00:45:00  0.01296134
Qin_POINT371     01/01/2026  00:50:00  0.00922508
Qin_POINT371     01/01/2026  00:55:00  0.00616419
Qin_POINT371     01/01/2026  01:00:00  0.00412692
Qin_POINT371     01/01/2026  01:05:00  0.00277123
Qin_POINT371     01/01/2026  01:10:00  0.00175439
Qin_POINT371     01/01/2026  01:15:00  0.00073319
Qin_POINT371     01/01/2026  01:20:00  0.00023698
Qin_POINT371     01/01/2026  01:25:00  0.00004740
Qin_POINT371     01/01/2026  01:30:00  0.00000000
Qin_POINT371     01/01/2026  01:35:00  0.00000000
Qin_POINT371     01/01/2026  01:40:00  0.00000000
Qin_POINT371     01/01/2026  01:45:00  0.00000000
Qin_POINT371     01/01/2026  01:50:00  0.00000000
Qin_POINT371     01/01/2026  01:55:00  0.00000000
Qin_POINT371     01/01/2026  02:00:00  0.00000000
Qin_POINT371     01/01/2026  02:05:00  0.00000000
Qin_POINT371     01/01/2026  02:10:00  0.00000000
Qin_POINT371     01/01/2026  02:15:00  0.00000000
Qin_POINT371     01/01/2026  02:20:00  0.00000000
Qin_POINT371     01/01/2026  02:25:00  0.00000000
Qin_POINT371     01/01/2026  02:30:00  0.00000000
Qin_POINT371     01/01/2026  02:35:00  0.00000000
Qin_POINT371     01/01/2026  02:40:00  0.00000000
Qin_POINT371     01/01/2026  02:45:00  0.00000000
Qin_POINT371     01/01/2026  02:50:00  0.00000000
Qin_POINT371     01/01/2026  02:55:00  0.00000000
Qin_POINT371     01/01/2026  03:00:00  0.00000000
Qin_POINT373     01/01/2026  00:00:00  0.00000000
Qin_POINT373     01/01/2026  00:05:00  0.00023698
Qin_POINT373     01/01/2026  00:10:00  0.00061615
Qin_POINT373     01/01/2026  00:15:00  0.00127970
Qin_POINT373     01/01/2026  00:20:00  0.00224225
Qin_POINT373     01/01/2026  00:25:00  0.00472109
Qin_POINT373     01/01/2026  00:30:00  0.00782904
Qin_POINT373     01/01/2026  00:35:00  0.01175371
Qin_POINT373     01/01/2026  00:40:00  0.01564474
Qin_POINT373     01/01/2026  00:45:00  0.01296134
Qin_POINT373     01/01/2026  00:50:00  0.00922508
Qin_POINT373     01/01/2026  00:55:00  0.00616419
Qin_POINT373     01/01/2026  01:00:00  0.00412692
Qin_POINT373     01/01/2026  01:05:00  0.00277123
Qin_POINT373     01/01/2026  01:10:00  0.00175439
Qin_POINT373     01/01/2026  01:15:00  0.00073319
Qin_POINT373     01/01/2026  01:20:00  0.00023698
Qin_POINT373     01/01/2026  01:25:00  0.00004740
Qin_POINT373     01/01/2026  01:30:00  0.00000000
Qin_POINT373     01/01/2026  01:35:00  0.00000000
Qin_POINT373     01/01/2026  01:40:00  0.00000000
Qin_POINT373     01/01/2026  01:45:00  0.00000000
Qin_POINT373     01/01/2026  01:50:00  0.00000000
Qin_POINT373     01/01/2026  01:55:00  0.00000000
Qin_POINT373     01/01/2026  02:00:00  0.00000000
Qin_POINT373     01/01/2026  02:05:00  0.00000000
Qin_POINT373     01/01/2026  02:10:00  0.00000000
Qin_POINT373     01/01/2026  02:15:00  0.00000000
Qin_POINT373     01/01/2026  02:20:00  0.00000000
Qin_POINT373     01/01/2026  02:25:00  0.00000000
Qin_POINT373     01/01/2026  02:30:00  0.00000000
Qin_POINT373     01/01/2026  02:35:00  0.00000000
Qin_POINT373     01/01/2026  02:40:00  0.00000000
Qin_POINT373     01/01/2026  02:45:00  0.00000000
Qin_POINT373     01/01/2026  02:50:00  0.00000000
Qin_POINT373     01/01/2026  02:55:00  0.00000000
Qin_POINT373     01/01/2026  03:00:00  0.00000000
Qin_POINT374     01/01/2026  00:00:00  0.00000000
Qin_POINT374     01/01/2026  00:05:00  0.00023698
Qin_POINT374     01/01/2026  00:10:00  0.00061615
Qin_POINT374     01/01/2026  00:15:00  0.00127970
Qin_POINT374     01/01/2026  00:20:00  0.00224225
Qin_POINT374     01/01/2026  00:25:00  0.00472109
Qin_POINT374     01/01/2026  00:30:00  0.00782904
Qin_POINT374     01/01/2026  00:35:00  0.01175371
Qin_POINT374     01/01/2026  00:40:00  0.01564474
Qin_POINT374     01/01/2026  00:45:00  0.01296134
Qin_POINT374     01/01/2026  00:50:00  0.00922508
Qin_POINT374     01/01/2026  00:55:00  0.00616419
Qin_POINT374     01/01/2026  01:00:00  0.00412692
Qin_POINT374     01/01/2026  01:05:00  0.00277123
Qin_POINT374     01/01/2026  01:10:00  0.00175439
Qin_POINT374     01/01/2026  01:15:00  0.00073319
Qin_POINT374     01/01/2026  01:20:00  0.00023698
Qin_POINT374     01/01/2026  01:25:00  0.00004740
Qin_POINT374     01/01/2026  01:30:00  0.00000000
Qin_POINT374     01/01/2026  01:35:00  0.00000000
Qin_POINT374     01/01/2026  01:40:00  0.00000000
Qin_POINT374     01/01/2026  01:45:00  0.00000000
Qin_POINT374     01/01/2026  01:50:00  0.00000000
Qin_POINT374     01/01/2026  01:55:00  0.00000000
Qin_POINT374     01/01/2026  02:00:00  0.00000000
Qin_POINT374     01/01/2026  02:05:00  0.00000000
Qin_POINT374     01/01/2026  02:10:00  0.00000000
Qin_POINT374     01/01/2026  02:15:00  0.00000000
Qin_POINT374     01/01/2026  02:20:00  0.00000000
Qin_POINT374     01/01/2026  02:25:00  0.00000000
Qin_POINT374     01/01/2026  02:30:00  0.00000000
Qin_POINT374     01/01/2026  02:35:00  0.00000000
Qin_POINT374     01/01/2026  02:40:00  0.00000000
Qin_POINT374     01/01/2026  02:45:00  0.00000000
Qin_POINT374     01/01/2026  02:50:00  0.00000000
Qin_POINT374     01/01/2026  02:55:00  0.00000000
Qin_POINT374     01/01/2026  03:00:00  0.00000000
Qin_POINT375     01/01/2026  00:00:00  0.00000000
Qin_POINT375     01/01/2026  00:05:00  0.00023698
Qin_POINT375     01/01/2026  00:10:00  0.00061615
Qin_POINT375     01/01/2026  00:15:00  0.00127970
Qin_POINT375     01/01/2026  00:20:00  0.00224225
Qin_POINT375     01/01/2026  00:25:00  0.00472109
Qin_POINT375     01/01/2026  00:30:00  0.00782904
Qin_POINT375     01/01/2026  00:35:00  0.01175371
Qin_POINT375     01/01/2026  00:40:00  0.01564474
Qin_POINT375     01/01/2026  00:45:00  0.01296134
Qin_POINT375     01/01/2026  00:50:00  0.00922508
Qin_POINT375     01/01/2026  00:55:00  0.00616419
Qin_POINT375     01/01/2026  01:00:00  0.00412692
Qin_POINT375     01/01/2026  01:05:00  0.00277123
Qin_POINT375     01/01/2026  01:10:00  0.00175439
Qin_POINT375     01/01/2026  01:15:00  0.00073319
Qin_POINT375     01/01/2026  01:20:00  0.00023698
Qin_POINT375     01/01/2026  01:25:00  0.00004740
Qin_POINT375     01/01/2026  01:30:00  0.00000000
Qin_POINT375     01/01/2026  01:35:00  0.00000000
Qin_POINT375     01/01/2026  01:40:00  0.00000000
Qin_POINT375     01/01/2026  01:45:00  0.00000000
Qin_POINT375     01/01/2026  01:50:00  0.00000000
Qin_POINT375     01/01/2026  01:55:00  0.00000000
Qin_POINT375     01/01/2026  02:00:00  0.00000000
Qin_POINT375     01/01/2026  02:05:00  0.00000000
Qin_POINT375     01/01/2026  02:10:00  0.00000000
Qin_POINT375     01/01/2026  02:15:00  0.00000000
Qin_POINT375     01/01/2026  02:20:00  0.00000000
Qin_POINT375     01/01/2026  02:25:00  0.00000000
Qin_POINT375     01/01/2026  02:30:00  0.00000000
Qin_POINT375     01/01/2026  02:35:00  0.00000000
Qin_POINT375     01/01/2026  02:40:00  0.00000000
Qin_POINT375     01/01/2026  02:45:00  0.00000000
Qin_POINT375     01/01/2026  02:50:00  0.00000000
Qin_POINT375     01/01/2026  02:55:00  0.00000000
Qin_POINT375     01/01/2026  03:00:00  0.00000000
Qin_POINT376     01/01/2026  00:00:00  0.00000000
Qin_POINT376     01/01/2026  00:05:00  0.00023698
Qin_POINT376     01/01/2026  00:10:00  0.00061615
Qin_POINT376     01/01/2026  00:15:00  0.00127970
Qin_POINT376     01/01/2026  00:20:00  0.00224225
Qin_POINT376     01/01/2026  00:25:00  0.00472109
Qin_POINT376     01/01/2026  00:30:00  0.00782904
Qin_POINT376     01/01/2026  00:35:00  0.01175371
Qin_POINT376     01/01/2026  00:40:00  0.01564474
Qin_POINT376     01/01/2026  00:45:00  0.01296134
Qin_POINT376     01/01/2026  00:50:00  0.00922508
Qin_POINT376     01/01/2026  00:55:00  0.00616419
Qin_POINT376     01/01/2026  01:00:00  0.00412692
Qin_POINT376     01/01/2026  01:05:00  0.00277123
Qin_POINT376     01/01/2026  01:10:00  0.00175439
Qin_POINT376     01/01/2026  01:15:00  0.00073319
Qin_POINT376     01/01/2026  01:20:00  0.00023698
Qin_POINT376     01/01/2026  01:25:00  0.00004740
Qin_POINT376     01/01/2026  01:30:00  0.00000000
Qin_POINT376     01/01/2026  01:35:00  0.00000000
Qin_POINT376     01/01/2026  01:40:00  0.00000000
Qin_POINT376     01/01/2026  01:45:00  0.00000000
Qin_POINT376     01/01/2026  01:50:00  0.00000000
Qin_POINT376     01/01/2026  01:55:00  0.00000000
Qin_POINT376     01/01/2026  02:00:00  0.00000000
Qin_POINT376     01/01/2026  02:05:00  0.00000000
Qin_POINT376     01/01/2026  02:10:00  0.00000000
Qin_POINT376     01/01/2026  02:15:00  0.00000000
Qin_POINT376     01/01/2026  02:20:00  0.00000000
Qin_POINT376     01/01/2026  02:25:00  0.00000000
Qin_POINT376     01/01/2026  02:30:00  0.00000000
Qin_POINT376     01/01/2026  02:35:00  0.00000000
Qin_POINT376     01/01/2026  02:40:00  0.00000000
Qin_POINT376     01/01/2026  02:45:00  0.00000000
Qin_POINT376     01/01/2026  02:50:00  0.00000000
Qin_POINT376     01/01/2026  02:55:00  0.00000000
Qin_POINT376     01/01/2026  03:00:00  0.00000000
Qin_POINT377     01/01/2026  00:00:00  0.00000000
Qin_POINT377     01/01/2026  00:05:00  0.00023698
Qin_POINT377     01/01/2026  00:10:00  0.00061615
Qin_POINT377     01/01/2026  00:15:00  0.00127970
Qin_POINT377     01/01/2026  00:20:00  0.00224225
Qin_POINT377     01/01/2026  00:25:00  0.00472109
Qin_POINT377     01/01/2026  00:30:00  0.00782904
Qin_POINT377     01/01/2026  00:35:00  0.01175371
Qin_POINT377     01/01/2026  00:40:00  0.01564474
Qin_POINT377     01/01/2026  00:45:00  0.01296134
Qin_POINT377     01/01/2026  00:50:00  0.00922508
Qin_POINT377     01/01/2026  00:55:00  0.00616419
Qin_POINT377     01/01/2026  01:00:00  0.00412692
Qin_POINT377     01/01/2026  01:05:00  0.00277123
Qin_POINT377     01/01/2026  01:10:00  0.00175439
Qin_POINT377     01/01/2026  01:15:00  0.00073319
Qin_POINT377     01/01/2026  01:20:00  0.00023698
Qin_POINT377     01/01/2026  01:25:00  0.00004740
Qin_POINT377     01/01/2026  01:30:00  0.00000000
Qin_POINT377     01/01/2026  01:35:00  0.00000000
Qin_POINT377     01/01/2026  01:40:00  0.00000000
Qin_POINT377     01/01/2026  01:45:00  0.00000000
Qin_POINT377     01/01/2026  01:50:00  0.00000000
Qin_POINT377     01/01/2026  01:55:00  0.00000000
Qin_POINT377     01/01/2026  02:00:00  0.00000000
Qin_POINT377     01/01/2026  02:05:00  0.00000000
Qin_POINT377     01/01/2026  02:10:00  0.00000000
Qin_POINT377     01/01/2026  02:15:00  0.00000000
Qin_POINT377     01/01/2026  02:20:00  0.00000000
Qin_POINT377     01/01/2026  02:25:00  0.00000000
Qin_POINT377     01/01/2026  02:30:00  0.00000000
Qin_POINT377     01/01/2026  02:35:00  0.00000000
Qin_POINT377     01/01/2026  02:40:00  0.00000000
Qin_POINT377     01/01/2026  02:45:00  0.00000000
Qin_POINT377     01/01/2026  02:50:00  0.00000000
Qin_POINT377     01/01/2026  02:55:00  0.00000000
Qin_POINT377     01/01/2026  03:00:00  0.00000000
Qin_POINT378     01/01/2026  00:00:00  0.00000000
Qin_POINT378     01/01/2026  00:05:00  0.00023698
Qin_POINT378     01/01/2026  00:10:00  0.00061615
Qin_POINT378     01/01/2026  00:15:00  0.00127970
Qin_POINT378     01/01/2026  00:20:00  0.00224225
Qin_POINT378     01/01/2026  00:25:00  0.00472109
Qin_POINT378     01/01/2026  00:30:00  0.00782904
Qin_POINT378     01/01/2026  00:35:00  0.01175371
Qin_POINT378     01/01/2026  00:40:00  0.01564474
Qin_POINT378     01/01/2026  00:45:00  0.01296134
Qin_POINT378     01/01/2026  00:50:00  0.00922508
Qin_POINT378     01/01/2026  00:55:00  0.00616419
Qin_POINT378     01/01/2026  01:00:00  0.00412692
Qin_POINT378     01/01/2026  01:05:00  0.00277123
Qin_POINT378     01/01/2026  01:10:00  0.00175439
Qin_POINT378     01/01/2026  01:15:00  0.00073319
Qin_POINT378     01/01/2026  01:20:00  0.00023698
Qin_POINT378     01/01/2026  01:25:00  0.00004740
Qin_POINT378     01/01/2026  01:30:00  0.00000000
Qin_POINT378     01/01/2026  01:35:00  0.00000000
Qin_POINT378     01/01/2026  01:40:00  0.00000000
Qin_POINT378     01/01/2026  01:45:00  0.00000000
Qin_POINT378     01/01/2026  01:50:00  0.00000000
Qin_POINT378     01/01/2026  01:55:00  0.00000000
Qin_POINT378     01/01/2026  02:00:00  0.00000000
Qin_POINT378     01/01/2026  02:05:00  0.00000000
Qin_POINT378     01/01/2026  02:10:00  0.00000000
Qin_POINT378     01/01/2026  02:15:00  0.00000000
Qin_POINT378     01/01/2026  02:20:00  0.00000000
Qin_POINT378     01/01/2026  02:25:00  0.00000000
Qin_POINT378     01/01/2026  02:30:00  0.00000000
Qin_POINT378     01/01/2026  02:35:00  0.00000000
Qin_POINT378     01/01/2026  02:40:00  0.00000000
Qin_POINT378     01/01/2026  02:45:00  0.00000000
Qin_POINT378     01/01/2026  02:50:00  0.00000000
Qin_POINT378     01/01/2026  02:55:00  0.00000000
Qin_POINT378     01/01/2026  03:00:00  0.00000000
Qin_POINT379     01/01/2026  00:00:00  0.00000000
Qin_POINT379     01/01/2026  00:05:00  0.00023698
Qin_POINT379     01/01/2026  00:10:00  0.00061615
Qin_POINT379     01/01/2026  00:15:00  0.00127970
Qin_POINT379     01/01/2026  00:20:00  0.00224225
Qin_POINT379     01/01/2026  00:25:00  0.00472109
Qin_POINT379     01/01/2026  00:30:00  0.00782904
Qin_POINT379     01/01/2026  00:35:00  0.01175371
Qin_POINT379     01/01/2026  00:40:00  0.01564474
Qin_POINT379     01/01/2026  00:45:00  0.01296134
Qin_POINT379     01/01/2026  00:50:00  0.00922508
Qin_POINT379     01/01/2026  00:55:00  0.00616419
Qin_POINT379     01/01/2026  01:00:00  0.00412692
Qin_POINT379     01/01/2026  01:05:00  0.00277123
Qin_POINT379     01/01/2026  01:10:00  0.00175439
Qin_POINT379     01/01/2026  01:15:00  0.00073319
Qin_POINT379     01/01/2026  01:20:00  0.00023698
Qin_POINT379     01/01/2026  01:25:00  0.00004740
Qin_POINT379     01/01/2026  01:30:00  0.00000000
Qin_POINT379     01/01/2026  01:35:00  0.00000000
Qin_POINT379     01/01/2026  01:40:00  0.00000000
Qin_POINT379     01/01/2026  01:45:00  0.00000000
Qin_POINT379     01/01/2026  01:50:00  0.00000000
Qin_POINT379     01/01/2026  01:55:00  0.00000000
Qin_POINT379     01/01/2026  02:00:00  0.00000000
Qin_POINT379     01/01/2026  02:05:00  0.00000000
Qin_POINT379     01/01/2026  02:10:00  0.00000000
Qin_POINT379     01/01/2026  02:15:00  0.00000000
Qin_POINT379     01/01/2026  02:20:00  0.00000000
Qin_POINT379     01/01/2026  02:25:00  0.00000000
Qin_POINT379     01/01/2026  02:30:00  0.00000000
Qin_POINT379     01/01/2026  02:35:00  0.00000000
Qin_POINT379     01/01/2026  02:40:00  0.00000000
Qin_POINT379     01/01/2026  02:45:00  0.00000000
Qin_POINT379     01/01/2026  02:50:00  0.00000000
Qin_POINT379     01/01/2026  02:55:00  0.00000000
Qin_POINT379     01/01/2026  03:00:00  0.00000000
Qin_POINT380     01/01/2026  00:00:00  0.00000000
Qin_POINT380     01/01/2026  00:05:00  0.00023698
Qin_POINT380     01/01/2026  00:10:00  0.00061615
Qin_POINT380     01/01/2026  00:15:00  0.00127970
Qin_POINT380     01/01/2026  00:20:00  0.00224225
Qin_POINT380     01/01/2026  00:25:00  0.00472109
Qin_POINT380     01/01/2026  00:30:00  0.00782904
Qin_POINT380     01/01/2026  00:35:00  0.01175371
Qin_POINT380     01/01/2026  00:40:00  0.01564474
Qin_POINT380     01/01/2026  00:45:00  0.01296134
Qin_POINT380     01/01/2026  00:50:00  0.00922508
Qin_POINT380     01/01/2026  00:55:00  0.00616419
Qin_POINT380     01/01/2026  01:00:00  0.00412692
Qin_POINT380     01/01/2026  01:05:00  0.00277123
Qin_POINT380     01/01/2026  01:10:00  0.00175439
Qin_POINT380     01/01/2026  01:15:00  0.00073319
Qin_POINT380     01/01/2026  01:20:00  0.00023698
Qin_POINT380     01/01/2026  01:25:00  0.00004740
Qin_POINT380     01/01/2026  01:30:00  0.00000000
Qin_POINT380     01/01/2026  01:35:00  0.00000000
Qin_POINT380     01/01/2026  01:40:00  0.00000000
Qin_POINT380     01/01/2026  01:45:00  0.00000000
Qin_POINT380     01/01/2026  01:50:00  0.00000000
Qin_POINT380     01/01/2026  01:55:00  0.00000000
Qin_POINT380     01/01/2026  02:00:00  0.00000000
Qin_POINT380     01/01/2026  02:05:00  0.00000000
Qin_POINT380     01/01/2026  02:10:00  0.00000000
Qin_POINT380     01/01/2026  02:15:00  0.00000000
Qin_POINT380     01/01/2026  02:20:00  0.00000000
Qin_POINT380     01/01/2026  02:25:00  0.00000000
Qin_POINT380     01/01/2026  02:30:00  0.00000000
Qin_POINT380     01/01/2026  02:35:00  0.00000000
Qin_POINT380     01/01/2026  02:40:00  0.00000000
Qin_POINT380     01/01/2026  02:45:00  0.00000000
Qin_POINT380     01/01/2026  02:50:00  0.00000000
Qin_POINT380     01/01/2026  02:55:00  0.00000000
Qin_POINT380     01/01/2026  03:00:00  0.00000000
Qin_POINT381     01/01/2026  00:00:00  0.00000000
Qin_POINT381     01/01/2026  00:05:00  0.00023698
Qin_POINT381     01/01/2026  00:10:00  0.00061615
Qin_POINT381     01/01/2026  00:15:00  0.00127970
Qin_POINT381     01/01/2026  00:20:00  0.00224225
Qin_POINT381     01/01/2026  00:25:00  0.00472109
Qin_POINT381     01/01/2026  00:30:00  0.00782904
Qin_POINT381     01/01/2026  00:35:00  0.01175371
Qin_POINT381     01/01/2026  00:40:00  0.01564474
Qin_POINT381     01/01/2026  00:45:00  0.01296134
Qin_POINT381     01/01/2026  00:50:00  0.00922508
Qin_POINT381     01/01/2026  00:55:00  0.00616419
Qin_POINT381     01/01/2026  01:00:00  0.00412692
Qin_POINT381     01/01/2026  01:05:00  0.00277123
Qin_POINT381     01/01/2026  01:10:00  0.00175439
Qin_POINT381     01/01/2026  01:15:00  0.00073319
Qin_POINT381     01/01/2026  01:20:00  0.00023698
Qin_POINT381     01/01/2026  01:25:00  0.00004740
Qin_POINT381     01/01/2026  01:30:00  0.00000000
Qin_POINT381     01/01/2026  01:35:00  0.00000000
Qin_POINT381     01/01/2026  01:40:00  0.00000000
Qin_POINT381     01/01/2026  01:45:00  0.00000000
Qin_POINT381     01/01/2026  01:50:00  0.00000000
Qin_POINT381     01/01/2026  01:55:00  0.00000000
Qin_POINT381     01/01/2026  02:00:00  0.00000000
Qin_POINT381     01/01/2026  02:05:00  0.00000000
Qin_POINT381     01/01/2026  02:10:00  0.00000000
Qin_POINT381     01/01/2026  02:15:00  0.00000000
Qin_POINT381     01/01/2026  02:20:00  0.00000000
Qin_POINT381     01/01/2026  02:25:00  0.00000000
Qin_POINT381     01/01/2026  02:30:00  0.00000000
Qin_POINT381     01/01/2026  02:35:00  0.00000000
Qin_POINT381     01/01/2026  02:40:00  0.00000000
Qin_POINT381     01/01/2026  02:45:00  0.00000000
Qin_POINT381     01/01/2026  02:50:00  0.00000000
Qin_POINT381     01/01/2026  02:55:00  0.00000000
Qin_POINT381     01/01/2026  03:00:00  0.00000000
Qin_POINT382     01/01/2026  00:00:00  0.00000000
Qin_POINT382     01/01/2026  00:05:00  0.00023698
Qin_POINT382     01/01/2026  00:10:00  0.00061615
Qin_POINT382     01/01/2026  00:15:00  0.00127970
Qin_POINT382     01/01/2026  00:20:00  0.00224225
Qin_POINT382     01/01/2026  00:25:00  0.00472109
Qin_POINT382     01/01/2026  00:30:00  0.00782904
Qin_POINT382     01/01/2026  00:35:00  0.01175371
Qin_POINT382     01/01/2026  00:40:00  0.01564474
Qin_POINT382     01/01/2026  00:45:00  0.01296134
Qin_POINT382     01/01/2026  00:50:00  0.00922508
Qin_POINT382     01/01/2026  00:55:00  0.00616419
Qin_POINT382     01/01/2026  01:00:00  0.00412692
Qin_POINT382     01/01/2026  01:05:00  0.00277123
Qin_POINT382     01/01/2026  01:10:00  0.00175439
Qin_POINT382     01/01/2026  01:15:00  0.00073319
Qin_POINT382     01/01/2026  01:20:00  0.00023698
Qin_POINT382     01/01/2026  01:25:00  0.00004740
Qin_POINT382     01/01/2026  01:30:00  0.00000000
Qin_POINT382     01/01/2026  01:35:00  0.00000000
Qin_POINT382     01/01/2026  01:40:00  0.00000000
Qin_POINT382     01/01/2026  01:45:00  0.00000000
Qin_POINT382     01/01/2026  01:50:00  0.00000000
Qin_POINT382     01/01/2026  01:55:00  0.00000000
Qin_POINT382     01/01/2026  02:00:00  0.00000000
Qin_POINT382     01/01/2026  02:05:00  0.00000000
Qin_POINT382     01/01/2026  02:10:00  0.00000000
Qin_POINT382     01/01/2026  02:15:00  0.00000000
Qin_POINT382     01/01/2026  02:20:00  0.00000000
Qin_POINT382     01/01/2026  02:25:00  0.00000000
Qin_POINT382     01/01/2026  02:30:00  0.00000000
Qin_POINT382     01/01/2026  02:35:00  0.00000000
Qin_POINT382     01/01/2026  02:40:00  0.00000000
Qin_POINT382     01/01/2026  02:45:00  0.00000000
Qin_POINT382     01/01/2026  02:50:00  0.00000000
Qin_POINT382     01/01/2026  02:55:00  0.00000000
Qin_POINT382     01/01/2026  03:00:00  0.00000000
Qin_POINT383     01/01/2026  00:00:00  0.00000000
Qin_POINT383     01/01/2026  00:05:00  0.00023698
Qin_POINT383     01/01/2026  00:10:00  0.00061615
Qin_POINT383     01/01/2026  00:15:00  0.00127970
Qin_POINT383     01/01/2026  00:20:00  0.00224225
Qin_POINT383     01/01/2026  00:25:00  0.00472109
Qin_POINT383     01/01/2026  00:30:00  0.00782904
Qin_POINT383     01/01/2026  00:35:00  0.01175371
Qin_POINT383     01/01/2026  00:40:00  0.01564474
Qin_POINT383     01/01/2026  00:45:00  0.01296134
Qin_POINT383     01/01/2026  00:50:00  0.00922508
Qin_POINT383     01/01/2026  00:55:00  0.00616419
Qin_POINT383     01/01/2026  01:00:00  0.00412692
Qin_POINT383     01/01/2026  01:05:00  0.00277123
Qin_POINT383     01/01/2026  01:10:00  0.00175439
Qin_POINT383     01/01/2026  01:15:00  0.00073319
Qin_POINT383     01/01/2026  01:20:00  0.00023698
Qin_POINT383     01/01/2026  01:25:00  0.00004740
Qin_POINT383     01/01/2026  01:30:00  0.00000000
Qin_POINT383     01/01/2026  01:35:00  0.00000000
Qin_POINT383     01/01/2026  01:40:00  0.00000000
Qin_POINT383     01/01/2026  01:45:00  0.00000000
Qin_POINT383     01/01/2026  01:50:00  0.00000000
Qin_POINT383     01/01/2026  01:55:00  0.00000000
Qin_POINT383     01/01/2026  02:00:00  0.00000000
Qin_POINT383     01/01/2026  02:05:00  0.00000000
Qin_POINT383     01/01/2026  02:10:00  0.00000000
Qin_POINT383     01/01/2026  02:15:00  0.00000000
Qin_POINT383     01/01/2026  02:20:00  0.00000000
Qin_POINT383     01/01/2026  02:25:00  0.00000000
Qin_POINT383     01/01/2026  02:30:00  0.00000000
Qin_POINT383     01/01/2026  02:35:00  0.00000000
Qin_POINT383     01/01/2026  02:40:00  0.00000000
Qin_POINT383     01/01/2026  02:45:00  0.00000000
Qin_POINT383     01/01/2026  02:50:00  0.00000000
Qin_POINT383     01/01/2026  02:55:00  0.00000000
Qin_POINT383     01/01/2026  03:00:00  0.00000000
Qin_POINT385     01/01/2026  00:00:00  0.00000000
Qin_POINT385     01/01/2026  00:05:00  0.00023698
Qin_POINT385     01/01/2026  00:10:00  0.00061615
Qin_POINT385     01/01/2026  00:15:00  0.00127970
Qin_POINT385     01/01/2026  00:20:00  0.00224225
Qin_POINT385     01/01/2026  00:25:00  0.00472109
Qin_POINT385     01/01/2026  00:30:00  0.00782904
Qin_POINT385     01/01/2026  00:35:00  0.01175371
Qin_POINT385     01/01/2026  00:40:00  0.01564474
Qin_POINT385     01/01/2026  00:45:00  0.01296134
Qin_POINT385     01/01/2026  00:50:00  0.00922508
Qin_POINT385     01/01/2026  00:55:00  0.00616419
Qin_POINT385     01/01/2026  01:00:00  0.00412692
Qin_POINT385     01/01/2026  01:05:00  0.00277123
Qin_POINT385     01/01/2026  01:10:00  0.00175439
Qin_POINT385     01/01/2026  01:15:00  0.00073319
Qin_POINT385     01/01/2026  01:20:00  0.00023698
Qin_POINT385     01/01/2026  01:25:00  0.00004740
Qin_POINT385     01/01/2026  01:30:00  0.00000000
Qin_POINT385     01/01/2026  01:35:00  0.00000000
Qin_POINT385     01/01/2026  01:40:00  0.00000000
Qin_POINT385     01/01/2026  01:45:00  0.00000000
Qin_POINT385     01/01/2026  01:50:00  0.00000000
Qin_POINT385     01/01/2026  01:55:00  0.00000000
Qin_POINT385     01/01/2026  02:00:00  0.00000000
Qin_POINT385     01/01/2026  02:05:00  0.00000000
Qin_POINT385     01/01/2026  02:10:00  0.00000000
Qin_POINT385     01/01/2026  02:15:00  0.00000000
Qin_POINT385     01/01/2026  02:20:00  0.00000000
Qin_POINT385     01/01/2026  02:25:00  0.00000000
Qin_POINT385     01/01/2026  02:30:00  0.00000000
Qin_POINT385     01/01/2026  02:35:00  0.00000000
Qin_POINT385     01/01/2026  02:40:00  0.00000000
Qin_POINT385     01/01/2026  02:45:00  0.00000000
Qin_POINT385     01/01/2026  02:50:00  0.00000000
Qin_POINT385     01/01/2026  02:55:00  0.00000000
Qin_POINT385     01/01/2026  03:00:00  0.00000000
Qin_POINT387     01/01/2026  00:00:00  0.00000000
Qin_POINT387     01/01/2026  00:05:00  0.00023698
Qin_POINT387     01/01/2026  00:10:00  0.00061615
Qin_POINT387     01/01/2026  00:15:00  0.00127970
Qin_POINT387     01/01/2026  00:20:00  0.00224225
Qin_POINT387     01/01/2026  00:25:00  0.00472109
Qin_POINT387     01/01/2026  00:30:00  0.00782904
Qin_POINT387     01/01/2026  00:35:00  0.01175371
Qin_POINT387     01/01/2026  00:40:00  0.01564474
Qin_POINT387     01/01/2026  00:45:00  0.01296134
Qin_POINT387     01/01/2026  00:50:00  0.00922508
Qin_POINT387     01/01/2026  00:55:00  0.00616419
Qin_POINT387     01/01/2026  01:00:00  0.00412692
Qin_POINT387     01/01/2026  01:05:00  0.00277123
Qin_POINT387     01/01/2026  01:10:00  0.00175439
Qin_POINT387     01/01/2026  01:15:00  0.00073319
Qin_POINT387     01/01/2026  01:20:00  0.00023698
Qin_POINT387     01/01/2026  01:25:00  0.00004740
Qin_POINT387     01/01/2026  01:30:00  0.00000000
Qin_POINT387     01/01/2026  01:35:00  0.00000000
Qin_POINT387     01/01/2026  01:40:00  0.00000000
Qin_POINT387     01/01/2026  01:45:00  0.00000000
Qin_POINT387     01/01/2026  01:50:00  0.00000000
Qin_POINT387     01/01/2026  01:55:00  0.00000000
Qin_POINT387     01/01/2026  02:00:00  0.00000000
Qin_POINT387     01/01/2026  02:05:00  0.00000000
Qin_POINT387     01/01/2026  02:10:00  0.00000000
Qin_POINT387     01/01/2026  02:15:00  0.00000000
Qin_POINT387     01/01/2026  02:20:00  0.00000000
Qin_POINT387     01/01/2026  02:25:00  0.00000000
Qin_POINT387     01/01/2026  02:30:00  0.00000000
Qin_POINT387     01/01/2026  02:35:00  0.00000000
Qin_POINT387     01/01/2026  02:40:00  0.00000000
Qin_POINT387     01/01/2026  02:45:00  0.00000000
Qin_POINT387     01/01/2026  02:50:00  0.00000000
Qin_POINT387     01/01/2026  02:55:00  0.00000000
Qin_POINT387     01/01/2026  03:00:00  0.00000000
Qin_POINT388     01/01/2026  00:00:00  0.00000000
Qin_POINT388     01/01/2026  00:05:00  0.00023698
Qin_POINT388     01/01/2026  00:10:00  0.00061615
Qin_POINT388     01/01/2026  00:15:00  0.00127970
Qin_POINT388     01/01/2026  00:20:00  0.00224225
Qin_POINT388     01/01/2026  00:25:00  0.00472109
Qin_POINT388     01/01/2026  00:30:00  0.00782904
Qin_POINT388     01/01/2026  00:35:00  0.01175371
Qin_POINT388     01/01/2026  00:40:00  0.01564474
Qin_POINT388     01/01/2026  00:45:00  0.01296134
Qin_POINT388     01/01/2026  00:50:00  0.00922508
Qin_POINT388     01/01/2026  00:55:00  0.00616419
Qin_POINT388     01/01/2026  01:00:00  0.00412692
Qin_POINT388     01/01/2026  01:05:00  0.00277123
Qin_POINT388     01/01/2026  01:10:00  0.00175439
Qin_POINT388     01/01/2026  01:15:00  0.00073319
Qin_POINT388     01/01/2026  01:20:00  0.00023698
Qin_POINT388     01/01/2026  01:25:00  0.00004740
Qin_POINT388     01/01/2026  01:30:00  0.00000000
Qin_POINT388     01/01/2026  01:35:00  0.00000000
Qin_POINT388     01/01/2026  01:40:00  0.00000000
Qin_POINT388     01/01/2026  01:45:00  0.00000000
Qin_POINT388     01/01/2026  01:50:00  0.00000000
Qin_POINT388     01/01/2026  01:55:00  0.00000000
Qin_POINT388     01/01/2026  02:00:00  0.00000000
Qin_POINT388     01/01/2026  02:05:00  0.00000000
Qin_POINT388     01/01/2026  02:10:00  0.00000000
Qin_POINT388     01/01/2026  02:15:00  0.00000000
Qin_POINT388     01/01/2026  02:20:00  0.00000000
Qin_POINT388     01/01/2026  02:25:00  0.00000000
Qin_POINT388     01/01/2026  02:30:00  0.00000000
Qin_POINT388     01/01/2026  02:35:00  0.00000000
Qin_POINT388     01/01/2026  02:40:00  0.00000000
Qin_POINT388     01/01/2026  02:45:00  0.00000000
Qin_POINT388     01/01/2026  02:50:00  0.00000000
Qin_POINT388     01/01/2026  02:55:00  0.00000000
Qin_POINT388     01/01/2026  03:00:00  0.00000000
Qin_POINT505     01/01/2026  00:00:00  0.00000000
Qin_POINT505     01/01/2026  00:05:00  0.00023698
Qin_POINT505     01/01/2026  00:10:00  0.00061615
Qin_POINT505     01/01/2026  00:15:00  0.00127970
Qin_POINT505     01/01/2026  00:20:00  0.00224225
Qin_POINT505     01/01/2026  00:25:00  0.00472109
Qin_POINT505     01/01/2026  00:30:00  0.00782904
Qin_POINT505     01/01/2026  00:35:00  0.01175371
Qin_POINT505     01/01/2026  00:40:00  0.01564474
Qin_POINT505     01/01/2026  00:45:00  0.01296134
Qin_POINT505     01/01/2026  00:50:00  0.00922508
Qin_POINT505     01/01/2026  00:55:00  0.00616419
Qin_POINT505     01/01/2026  01:00:00  0.00412692
Qin_POINT505     01/01/2026  01:05:00  0.00277123
Qin_POINT505     01/01/2026  01:10:00  0.00175439
Qin_POINT505     01/01/2026  01:15:00  0.00073319
Qin_POINT505     01/01/2026  01:20:00  0.00023698
Qin_POINT505     01/01/2026  01:25:00  0.00004740
Qin_POINT505     01/01/2026  01:30:00  0.00000000
Qin_POINT505     01/01/2026  01:35:00  0.00000000
Qin_POINT505     01/01/2026  01:40:00  0.00000000
Qin_POINT505     01/01/2026  01:45:00  0.00000000
Qin_POINT505     01/01/2026  01:50:00  0.00000000
Qin_POINT505     01/01/2026  01:55:00  0.00000000
Qin_POINT505     01/01/2026  02:00:00  0.00000000
Qin_POINT505     01/01/2026  02:05:00  0.00000000
Qin_POINT505     01/01/2026  02:10:00  0.00000000
Qin_POINT505     01/01/2026  02:15:00  0.00000000
Qin_POINT505     01/01/2026  02:20:00  0.00000000
Qin_POINT505     01/01/2026  02:25:00  0.00000000
Qin_POINT505     01/01/2026  02:30:00  0.00000000
Qin_POINT505     01/01/2026  02:35:00  0.00000000
Qin_POINT505     01/01/2026  02:40:00  0.00000000
Qin_POINT505     01/01/2026  02:45:00  0.00000000
Qin_POINT505     01/01/2026  02:50:00  0.00000000
Qin_POINT505     01/01/2026  02:55:00  0.00000000
Qin_POINT505     01/01/2026  03:00:00  0.00000000
Qin_OUT014       01/01/2026  00:00:00  0.00000000
Qin_OUT014       01/01/2026  00:05:00  0.00023698
Qin_OUT014       01/01/2026  00:10:00  0.00061615
Qin_OUT014       01/01/2026  00:15:00  0.00127970
Qin_OUT014       01/01/2026  00:20:00  0.00224225
Qin_OUT014       01/01/2026  00:25:00  0.00472109
Qin_OUT014       01/01/2026  00:30:00  0.00782904
Qin_OUT014       01/01/2026  00:35:00  0.01175371
Qin_OUT014       01/01/2026  00:40:00  0.01564474
Qin_OUT014       01/01/2026  00:45:00  0.01296134
Qin_OUT014       01/01/2026  00:50:00  0.00922508
Qin_OUT014       01/01/2026  00:55:00  0.00616419
Qin_OUT014       01/01/2026  01:00:00  0.00412692
Qin_OUT014       01/01/2026  01:05:00  0.00277123
Qin_OUT014       01/01/2026  01:10:00  0.00175439
Qin_OUT014       01/01/2026  01:15:00  0.00073319
Qin_OUT014       01/01/2026  01:20:00  0.00023698
Qin_OUT014       01/01/2026  01:25:00  0.00004740
Qin_OUT014       01/01/2026  01:30:00  0.00000000
Qin_OUT014       01/01/2026  01:35:00  0.00000000
Qin_OUT014       01/01/2026  01:40:00  0.00000000
Qin_OUT014       01/01/2026  01:45:00  0.00000000
Qin_OUT014       01/01/2026  01:50:00  0.00000000
Qin_OUT014       01/01/2026  01:55:00  0.00000000
Qin_OUT014       01/01/2026  02:00:00  0.00000000
Qin_OUT014       01/01/2026  02:05:00  0.00000000
Qin_OUT014       01/01/2026  02:10:00  0.00000000
Qin_OUT014       01/01/2026  02:15:00  0.00000000
Qin_OUT014       01/01/2026  02:20:00  0.00000000
Qin_OUT014       01/01/2026  02:25:00  0.00000000
Qin_OUT014       01/01/2026  02:30:00  0.00000000
Qin_OUT014       01/01/2026  02:35:00  0.00000000
Qin_OUT014       01/01/2026  02:40:00  0.00000000
Qin_OUT014       01/01/2026  02:45:00  0.00000000
Qin_OUT014       01/01/2026  02:50:00  0.00000000
Qin_OUT014       01/01/2026  02:55:00  0.00000000
Qin_OUT014       01/01/2026  03:00:00  0.00000000
Qin_OUT001       01/01/2026  00:00:00  0.00000000
Qin_OUT001       01/01/2026  00:05:00  0.00023698
Qin_OUT001       01/01/2026  00:10:00  0.00061615
Qin_OUT001       01/01/2026  00:15:00  0.00127970
Qin_OUT001       01/01/2026  00:20:00  0.00224225
Qin_OUT001       01/01/2026  00:25:00  0.00472109
Qin_OUT001       01/01/2026  00:30:00  0.00782904
Qin_OUT001       01/01/2026  00:35:00  0.01175371
Qin_OUT001       01/01/2026  00:40:00  0.01564474
Qin_OUT001       01/01/2026  00:45:00  0.01296134
Qin_OUT001       01/01/2026  00:50:00  0.00922508
Qin_OUT001       01/01/2026  00:55:00  0.00616419
Qin_OUT001       01/01/2026  01:00:00  0.00412692
Qin_OUT001       01/01/2026  01:05:00  0.00277123
Qin_OUT001       01/01/2026  01:10:00  0.00175439
Qin_OUT001       01/01/2026  01:15:00  0.00073319
Qin_OUT001       01/01/2026  01:20:00  0.00023698
Qin_OUT001       01/01/2026  01:25:00  0.00004740
Qin_OUT001       01/01/2026  01:30:00  0.00000000
Qin_OUT001       01/01/2026  01:35:00  0.00000000
Qin_OUT001       01/01/2026  01:40:00  0.00000000
Qin_OUT001       01/01/2026  01:45:00  0.00000000
Qin_OUT001       01/01/2026  01:50:00  0.00000000
Qin_OUT001       01/01/2026  01:55:00  0.00000000
Qin_OUT001       01/01/2026  02:00:00  0.00000000
Qin_OUT001       01/01/2026  02:05:00  0.00000000
Qin_OUT001       01/01/2026  02:10:00  0.00000000
Qin_OUT001       01/01/2026  02:15:00  0.00000000
Qin_OUT001       01/01/2026  02:20:00  0.00000000
Qin_OUT001       01/01/2026  02:25:00  0.00000000
Qin_OUT001       01/01/2026  02:30:00  0.00000000
Qin_OUT001       01/01/2026  02:35:00  0.00000000
Qin_OUT001       01/01/2026  02:40:00  0.00000000
Qin_OUT001       01/01/2026  02:45:00  0.00000000
Qin_OUT001       01/01/2026  02:50:00  0.00000000
Qin_OUT001       01/01/2026  02:55:00  0.00000000
Qin_OUT001       01/01/2026  03:00:00  0.00000000

[COORDINATES]
;;Node           X          Y
POINT239         833028.46  821252.39 
POINT240         832892.64  821647.74 
POINT241         832940.40  822136.80 
POINT242         833479.96  822343.94 
POINT243         832961.39  821908.96 
POINT244         833431.69  822077.60 
POINT246         833358.35  821412.58 
POINT247         833564.33  821678.71 
POINT248         833816.08  821974.22 
POINT249         834080.48  822299.83 
POINT251         833744.57  821097.49 
POINT252         833938.78  821330.32 
POINT253         834063.83  821486.52 
POINT254         834232.60  821715.20 
POINT255         833891.45  821680.31 
POINT256         834707.05  822236.70 
POINT258         834246.20  820952.43 
POINT259         834555.49  821315.29 
POINT260         834624.23  821593.15 
POINT262         834204.09  820441.25 
POINT263         834576.93  820786.69 
POINT264         834997.52  821282.92 
POINT265         835351.99  821710.84 
POINT266         835029.57  821958.59 
POINT267         834935.26  820505.77 
POINT268         834724.88  820460.11 
POINT270         835043.12  819916.30 
POINT271         835461.92  819825.75 
POINT272         835087.61  820372.95 
POINT273         835177.58  820827.80 
POINT275         834875.19  818934.28 
POINT276         835205.17  819508.10 
POINT277         835617.46  819602.70 
POINT278         835300.13  819281.06 
POINT279         835972.66  819719.66 
POINT280         836118.88  819934.88 
POINT281         836567.14  819767.42 
POINT282         836316.40  820215.05 
POINT283         836672.24  820409.32 
POINT284         835806.18  820848.49 
POINT285         836413.29  820891.89 
POINT286         835614.66  821461.00 
POINT287         835818.51  821743.36 
POINT288         836187.43  821863.41 
POINT289         835974.71  822148.30 
POINT290         836509.59  822312.77 
POINT291         836121.37  822344.97 
POINT293         835248.49  818421.27 
POINT294         835609.59  818630.50 
POINT296         835775.51  817691.66 
POINT297         835745.55  818187.62 
POINT299         836203.13  817957.72 
POINT300         836046.68  818303.49 
POINT302         837089.00  818324.00 
POINT303         836775.18  818478.73 
POINT304         836958.00  818599.00 
POINT305         837205.64  818032.74 
POINT306         837184.56  818555.26 
POINT307         836174.70  819354.25 
POINT309         837511.86  819259.52 
POINT311         837489.82  820624.35 
POINT312         837363.95  820058.96 
POINT313         836994.74  820867.31 
POINT315         837874.59  821358.69 
POINT316         837615.00  821523.00 
POINT317         837168.00  821419.00 
POINT319         838830.65  820655.52 
POINT320         838656.16  820973.39 
POINT321         838524.86  821103.76 
POINT322         838315.76  820948.92 
POINT323         838056.17  820698.20 
POINT324         837802.91  820913.23 
POINT325         837321.00  821301.00 
POINT326         839061.93  820891.88 
POINT327         839171.65  821326.38 
POINT328         839193.17  821740.82 
POINT329         839097.71  821943.57 
POINT330         839528.90  822440.05 
POINT331         838761.16  822148.09 
POINT332         838753.62  821374.78 
POINT333         838808.04  821714.66 
POINT334         838757.25  822027.76 
POINT336         837661.28  822036.04 
POINT337         837549.99  822480.28 
POINT339         837824.13  822334.11 
POINT340         837683.60  822651.25 
POINT341         837570.05  822897.10 
POINT343         838493.03  822512.38 
POINT344         838226.29  822669.05 
POINT345         838514.24  822650.03 
POINT346         838633.01  822962.00 
POINT347         839080.73  823053.31 
POINT348         838695.20  823474.70 
POINT349         838212.14  822913.78 
POINT351         838731.55  822447.32 
POINT353         839581.28  820298.34 
POINT354         840149.73  820347.95 
POINT355         839537.65  820802.90 
POINT356         840006.25  820878.03 
POINT357         839517.45  821399.10 
POINT358         839756.93  821282.03 
POINT359         839919.37  821623.34 
POINT360         840689.55  821567.15 
POINT361         840091.93  822152.67 
POINT363         840534.04  819550.43 
POINT365         841164.75  819419.04 
POINT367         841390.04  819283.27 
POINT368         841307.31  819604.82 
POINT369         841621.24  819110.01 
POINT370         841898.97  818904.19 
POINT371         842200.39  818509.27 
POINT373         841683.59  818472.83 
POINT374         841711.08  819230.57 
POINT375         841995.67  819236.39 
POINT376         842475.43  819515.95 
POINT377         842971.73  819797.89 
POINT378         842256.99  819379.12 
POINT379         842157.78  819652.31 
POINT380         841917.22  819976.20 
POINT381         842278.94  820024.66 
POINT382         841458.90  820105.36 
POINT383         841592.66  820551.45 
POINT385         841264.19  821309.27 
POINT387         842761.57  817375.82 
POINT388         842598.38  817967.69 
POINT505         836463.17  821499.55 
OUT027           832998.07  821068.12 
OUT026           833145.80  820975.32 
OUT025           833167.39  820961.76 
OUT024           833786.16  820483.03 
OUT023           834008.12  820111.18 
OUT022           834474.66  819734.62 
OUT021           834521.16  818805.48 
OUT020           835219.77  817993.37 
OUT019           835807.20  817144.93 
OUT018           836525.44  817679.58 
OUT017           837258.38  817857.81 
OUT016           837816.23  819264.59 
OUT015           838196.16  820168.11 
OUT014           838066.62  821550.69 
OUT013           838778.64  820346.50 
OUT012           838059.15  821907.00 
OUT011           838176.30  822076.03 
OUT010           838324.03  822236.30 
OUT009           838394.52  822259.81 
OUT008           839207.83  819905.71 
OUT007           840328.23  819306.31 
OUT006           840709.62  818927.67 
OUT005           841596.21  819069.95 
OUT004           841363.56  818802.44 
OUT003           840941.15  820889.34 
OUT002           842373.02  816904.23 
OUT001           841573.23  819028.73 
OUT014_OF        838076.62  821560.69 
OUT001_OF        841583.23  819038.73 

[REPORT]
INPUT      NO
CONTROLS   NO
SUBCATCHMENTS ALL
NODES ALL
LINKS ALL

