[TITLE]
;; Lightweight Python drainage model exported as a SWMM-compatible INP

[OPTIONS]
FLOW_UNITS           CMS
INFILTRATION         HORTON
FLOW_ROUTING         DYNWAVE
LINK_OFFSETS         DEPTH
MIN_SLOPE            0.00001
ALLOW_PONDING        NO
IGNORE_QUALITY        NO
START_DATE           01/01/2026
START_TIME           00:00:00
REPORT_START_DATE    01/01/2026
REPORT_START_TIME    00:00:00
END_DATE             01/01/2026
END_TIME             03:00:00
REPORT_STEP          00:05:00
ROUTING_STEP         00:00:30

[JUNCTIONS]
;;Name           Elevation  MaxDepth   InitDepth  SurDepth   Aponded
POINT239         3.460      2.000      0.000      0.000      0.000
POINT240         5.769      2.000      0.000      0.000      0.000
POINT241         3.031      2.000      0.000      0.000      0.000
POINT242         4.663      2.000      0.000      0.000      0.000
POINT243         3.322      2.000      0.000      0.000      0.000
POINT244         3.141      2.000      0.000      0.000      0.000
POINT246         3.945      2.000      0.000      0.000      0.000
POINT247         3.256      2.000      0.000      0.000      0.000
POINT248         3.323      2.000      0.000      0.000      0.000
POINT249         4.252      2.000      0.000      0.000      0.000
POINT251         5.667      2.000      0.000      0.000      0.000
POINT252         2.622      2.000      0.000      0.000      0.000
POINT253         2.390      2.000      0.000      0.000      0.000
POINT254         2.679      2.000      0.000      0.000      0.000
POINT255         2.348      2.000      0.000      0.000      0.000
POINT256         7.784      2.000      0.000      0.000      0.000
POINT258         1.988      2.000      0.000      0.000      0.000
POINT259         2.402      2.000      0.000      0.000      0.000
POINT260         3.565      2.000      0.000      0.000      0.000
POINT262         2.720      2.000      0.000      0.000      0.000
POINT263         2.306      2.000      0.000      0.000      0.000
POINT264         3.686      2.000      0.000      0.000      0.000
POINT265         13.494     2.000      0.000      0.000      0.000
POINT266         28.261     2.000      0.000      0.000      0.000
POINT267         2.273      2.000      0.000      0.000      0.000
POINT268         2.379      2.000      0.000      0.000      0.000
POINT270         2.588      2.000      0.000      0.000      0.000
POINT271         2.396      2.000      0.000      0.000      0.000
POINT272         2.636      2.000      0.000      0.000      0.000
POINT273         2.996      2.000      0.000      0.000      0.000
POINT275         6.536      2.000      0.000      0.000      0.000
POINT276         3.762      2.000      0.000      0.000      0.000
POINT277         3.134      2.000      0.000      0.000      0.000
POINT278         1.762      2.000      0.000      0.000      0.000
POINT279         4.351      2.000      0.000      0.000      0.000
POINT280         6.861      2.000      0.000      0.000      0.000
POINT281         22.293     2.000      0.000      0.000      0.000
POINT282         11.920     2.000      0.000      0.000      0.000
POINT283         16.757     2.000      0.000      0.000      0.000
POINT284         5.548      2.000      0.000      0.000      0.000
POINT285         8.813      2.000      0.000      0.000      0.000
POINT286         7.443      2.000      0.000      0.000      0.000
POINT287         13.146     2.000      0.000      0.000      0.000
POINT288         18.632     2.000      0.000      0.000      0.000
POINT289         28.105     2.000      0.000      0.000      0.000
POINT290         30.052     2.000      0.000      0.000      0.000
POINT291         32.558     2.000      0.000      0.000      0.000
POINT293         2.309      2.000      0.000      0.000      0.000
POINT294         3.450      2.000      0.000      0.000      0.000
POINT296         4.701      2.000      0.000      0.000      0.000
POINT297         11.597     2.000      0.000      0.000      0.000
POINT299         2.070      2.000      0.000      0.000      0.000
POINT300         3.982      2.000      0.000      0.000      0.000
POINT302         2.233      2.000      0.000      0.000      0.000
POINT303         6.314      2.000      0.000      0.000      0.000
POINT304         1.561      2.000      0.000      0.000      0.000
POINT305         3.167      2.000      0.000      0.000      0.000
POINT306         1.464      2.000      0.000      0.000      0.000
POINT307         13.490     2.000      0.000      0.000      0.000
POINT309         3.599      2.000      0.000      0.000      0.000
POINT311         3.911      2.000      0.000      0.000      0.000
POINT312         9.249      2.000      0.000      0.000      0.000
POINT313         10.238     2.000      0.000      0.000      0.000
POINT315         4.206      2.000      0.000      0.000      0.000
POINT316         18.867     2.000      0.000      0.000      0.000
POINT317         20.077     2.000      0.000      0.000      0.000
POINT319         3.580      2.000      0.000      0.000      0.000
POINT320         6.366      2.000      0.000      0.000      0.000
POINT321         3.639      2.000      0.000      0.000      0.000
POINT322         2.931      2.000      0.000      0.000      0.000
POINT323         2.965      2.000      0.000      0.000      0.000
POINT324         5.025      2.000      0.000      0.000      0.000
POINT325         11.833     2.000      0.000      0.000      0.000
POINT326         3.166      2.000      0.000      0.000      0.000
POINT327         3.145      2.000      0.000      0.000      0.000
POINT328         7.360      2.000      0.000      0.000      0.000
POINT329         4.736      2.000      0.000      0.000      0.000
POINT330         39.744     2.000      0.000      0.000      0.000
POINT331         5.125      2.000      0.000      0.000      0.000
POINT332         3.966      2.000      0.000      0.000      0.000
POINT333         4.101      2.000      0.000      0.000      0.000
POINT334         4.345      2.000      0.000      0.000      0.000
POINT336         10.112     2.000      0.000      0.000      0.000
POINT337         27.796     2.000      0.000      0.000      0.000
POINT339         14.021     2.000      0.000      0.000      0.000
POINT340         25.343     2.000      0.000      0.000      0.000
POINT341         55.598     2.000      0.000      0.000      0.000
POINT343         15.044     2.000      0.000      0.000      0.000
POINT344         21.678     2.000      0.000      0.000      0.000
POINT345         22.935     2.000      0.000      0.000      0.000
POINT346         47.797     2.000      0.000      0.000      0.000
POINT347         81.623     2.000      0.000      0.000      0.000
POINT348         111.667    2.000      0.000      0.000      0.000
POINT349         43.526     2.000      0.000      0.000      0.000
POINT351         11.880     2.000      0.000      0.000      0.000
POINT353         3.925      2.000      0.000      0.000      0.000
POINT354         3.096      2.000      0.000      0.000      0.000
POINT355         3.210      2.000      0.000      0.000      0.000
POINT356         5.939      2.000      0.000      0.000      0.000
POINT357         2.934      2.000      0.000      0.000      0.000
POINT358         3.076      2.000      0.000      0.000      0.000
POINT359         24.161     2.000      0.000      0.000      0.000
POINT360         80.300     2.000      0.000      0.000      0.000
POINT361         81.412     2.000      0.000      0.000      0.000
POINT363         2.990      2.000      0.000      0.000      0.000
POINT365         5.243      2.000      0.000      0.000      0.000
POINT367         3.878      2.000      0.000      0.000      0.000
POINT368         16.122     2.000      0.000      0.000      0.000
POINT369         4.111      2.000      0.000      0.000      0.000
POINT370         7.137      2.000      0.000      0.000      0.000
POINT371         36.013     2.000      0.000      0.000      0.000
POINT373         13.657     2.000      0.000      0.000      0.000
POINT374         4.264      2.000      0.000      0.000      0.000
POINT375         13.138     2.000      0.000      0.000      0.000
POINT376         42.193     2.000      0.000      0.000      0.000
POINT377         80.708     2.000      0.000      0.000      0.000
POINT378         30.892     2.000      0.000      0.000      0.000
POINT379         84.956     2.000      0.000      0.000      0.000
POINT380         89.025     2.000      0.000      0.000      0.000
POINT381         141.544    2.000      0.000      0.000      0.000
POINT382         34.778     2.000      0.000      0.000      0.000
POINT383         81.115     2.000      0.000      0.000      0.000
POINT385         109.586    2.000      0.000      0.000      0.000
POINT387         23.414     2.000      0.000      0.000      0.000
POINT388         28.413     2.000      0.000      0.000      0.000
POINT505         10.971     2.000      0.000      0.000      0.000
OUT014           8.592      2.000      0.000      0.000      0.000
OUT001           5.538      2.000      0.000      0.000      0.000

[OUTFALLS]
;;Name           Elevation  Type       Stage Data  Gated
OUT027           -2.000     FREE       NO
OUT026           -2.000     FREE       NO
OUT025           -1.000     FREE       NO
OUT024           -1.000     FREE       NO
OUT023           -2.000     FREE       NO
OUT022           -1.000     FREE       NO
OUT021           2.466      FREE       NO
OUT020           1.000      FREE       NO
OUT019           4.000      FREE       NO
OUT018           1.000      FREE       NO
OUT017           0.000      FREE       NO
OUT016           2.710      FREE       NO
OUT015           -1.000     FREE       NO
OUT013           3.000      FREE       NO
OUT012           8.104      FREE       NO
OUT011           8.299      FREE       NO
OUT010           6.077      FREE       NO
OUT009           5.511      FREE       NO
OUT008           -2.000     FREE       NO
OUT007           -2.000     FREE       NO
OUT006           -0.606     FREE       NO
OUT005           0.095      FREE       NO
OUT004           -0.480     FREE       NO
OUT003           62.225     FREE       NO
OUT002           0.000      FREE       NO
OUT014_OF        8.582      FREE       NO
OUT001_OF        5.528      FREE       NO

[CONDUITS]
;;Name           FromNode         ToNode           Length     Roughness  InOffset   OutOffset  InitFlow   MaxFlow
pip173           POINT242         POINT241         578.07     0.0130     0.000      0.000      0.000      0.000
pip174           POINT243         POINT241         231.11     0.0130     0.000      0.000      0.000      0.000
pip175           POINT240         POINT243         295.40     0.0130     0.000      0.000      0.000      0.000
pip176           POINT240         POINT239         416.41     0.0130     0.000      0.000      0.000      0.000
pip177           POINT239         OUT027           186.77     0.0130     0.000      0.000      0.000      0.000
pip178           POINT243         POINT244         501.06     0.0130     0.000      0.000      0.000      0.000
pip179           POINT249         POINT248         419.44     0.0130     0.000      0.000      0.000      0.000
pip180           POINT248         POINT247         484.45     0.0130     0.000      0.000      0.000      0.000
pip181           POINT246         POINT247         243.90     0.0130     0.000      0.000      0.000      0.000
pip182           POINT246         OUT026           492.82     0.0130     0.000      0.000      0.000      0.000
pip183           POINT256         POINT254         636.55     0.0130     0.000      0.000      0.000      0.000
pip184           POINT254         POINT253         289.75     0.0130     0.000      0.000      0.000      0.000
pip185           POINT253         POINT255         273.76     0.0130     0.000      0.000      0.000      0.000
pip186           POINT252         POINT253         200.09     0.0130     0.000      0.000      0.000      0.000
pip187           POINT251         POINT252         303.19     0.0130     0.000      0.000      0.000      0.000
pip188           POINT251         OUT025           680.15     0.0130     0.000      0.000      0.000      0.000
pip189           POINT260         POINT259         373.92     0.0130     0.000      0.000      0.000      0.000
pip190           POINT259         POINT258         476.99     0.0130     0.000      0.000      0.000      0.000
pip191           POINT258         OUT024           663.98     0.0130     0.000      0.000      0.000      0.000
pip192           POINT266         POINT265         429.58     0.0130     0.000      0.000      0.000      0.000
pip193           POINT265         POINT264         555.70     0.0130     0.000      0.000      0.000      0.000
pip194           POINT264         POINT263         650.53     0.0130     0.000      0.000      0.000      0.000
pip195           POINT262         POINT263         490.27     0.0130     0.000      0.000      0.000      0.000
pip196           POINT263         POINT267         457.82     0.0130     0.000      0.000      0.000      0.000
pip197           POINT262         POINT268         508.91     0.0130     0.000      0.000      0.000      0.000
pip198           POINT262         OUT023           426.47     0.0130     0.000      0.000      0.000      0.000
pip199           POINT291         POINT290         389.75     0.0130     0.000      0.000      0.000      0.000
pip200           POINT290         POINT505         814.55     0.0130     0.000      0.000      0.000      0.000
pip201           POINT505         POINT285         613.51     0.0130     0.000      0.000      0.000      0.000
pip202           POINT289         POINT288         370.40     0.0130     0.000      0.000      0.000      0.000
pip203           POINT288         POINT287         417.05     0.0130     0.000      0.000      0.000      0.000
pip204           POINT287         POINT286         354.86     0.0130     0.000      0.000      0.000      0.000
pip205           POINT286         POINT284         760.44     0.0130     0.000      0.000      0.000      0.000
pip206           POINT285         POINT284         652.90     0.0130     0.000      0.000      0.000      0.000
pip207           POINT284         POINT270         1164.43    0.0130     0.000      0.000      0.000      0.000
pip208           POINT270         POINT271         504.34     0.0130     0.000      0.000      0.000      0.000
pip209           POINT273         POINT272         509.86     0.0130     0.000      0.000      0.000      0.000
pip210           POINT272         POINT270         513.99     0.0130     0.000      0.000      0.000      0.000
pip211           POINT270         OUT022           605.38     0.0130     0.000      0.000      0.000      0.000
pip212           POINT283         POINT282         406.30     0.0130     0.000      0.000      0.000      0.000
pip213           POINT282         POINT280         336.68     0.0130     0.000      0.000      0.000      0.000
pip214           POINT280         POINT279         266.31     0.0130     0.000      0.000      0.000      0.000
pip215           POINT279         POINT277         389.04     0.0130     0.000      0.000      0.000      0.000
pip216           POINT276         POINT277         488.16     0.0130     0.000      0.000      0.000      0.000
pip217           POINT275         POINT276         681.07     0.0130     0.000      0.000      0.000      0.000
pip218           POINT307         POINT279         421.35     0.0130     0.000      0.000      0.000      0.000
pip219           POINT279         POINT278         866.20     0.0130     0.000      0.000      0.000      0.000
pip220           POINT275         POINT278         675.09     0.0130     0.000      0.000      0.000      0.000
pip221           POINT275         OUT021           343.68     0.0130     0.000      0.000      0.000      0.000
pip222           POINT294         POINT293         546.08     0.0130     0.000      0.000      0.000      0.000
pip223           POINT293         OUT020           510.32     0.0130     0.000      0.000      0.000      0.000
pip224           POINT297         POINT296         496.86     0.0130     0.000      0.000      0.000      0.000
pip225           POINT296         OUT019           547.78     0.0130     0.000      0.000      0.000      0.000
pip226           POINT300         POINT299         410.63     0.0130     0.000      0.000      0.000      0.000
pip227           POINT299         OUT018           417.10     0.0130     0.000      0.000      0.000      0.000
pip228           POINT303         POINT302         417.59     0.0130     0.000      0.000      0.000      0.000
pip229           POINT302         POINT304         382.39     0.0130     0.000      0.000      0.000      0.000
pip230           POINT305         POINT302         332.90     0.0130     0.000      0.000      0.000      0.000
pip231           POINT305         OUT017           167.14     0.0130     0.000      0.000      0.000      0.000
pip232           POINT305         POINT306         677.95     0.0130     0.000      0.000      0.000      0.000
pip233           POINT281         POINT280         485.16     0.0130     0.000      0.000      0.000      0.000
pip234           POINT309         OUT016           439.11     0.0130     0.000      0.000      0.000      0.000
pip235           POINT313         POINT311         650.79     0.0130     0.000      0.000      0.000      0.000
pip236           POINT312         POINT311         593.15     0.0130     0.000      0.000      0.000      0.000
pip237           POINT311         OUT015           884.39     0.0130     0.000      0.000      0.000      0.000
pip238           POINT317         POINT316         466.52     0.0130     0.000      0.000      0.000      0.000
pip239           POINT316         POINT315         376.64     0.0130     0.000      0.000      0.000      0.000
pip240           POINT325         POINT315         583.72     0.0130     0.000      0.000      0.000      0.000
pip241           OUT014           POINT315         273.06     0.0130     0.000      0.000      0.000      0.000
pip242           POINT324         POINT323         417.73     0.0130     0.000      0.000      0.000      0.000
pip243           POINT323         POINT322         363.82     0.0130     0.000      0.000      0.000      0.000
pip244           POINT320         POINT322         461.15     0.0130     0.000      0.000      0.000      0.000
pip245           POINT320         POINT321         209.95     0.0130     0.000      0.000      0.000      0.000
pip246           POINT320         POINT319         359.35     0.0130     0.000      0.000      0.000      0.000
pip247           POINT319         OUT013           318.92     0.0130     0.000      0.000      0.000      0.000
pip248           POINT332         POINT321         309.01     0.0130     0.000      0.000      0.000      0.000
pip249           POINT334         POINT333         326.72     0.0130     0.000      0.000      0.000      0.000
pip250           POINT333         POINT332         366.38     0.0130     0.000      0.000      0.000      0.000
pip251           POINT341         POINT340         635.24     0.0130     0.000      0.000      0.000      0.000
pip252           POINT340         POINT339         428.52     0.0130     0.000      0.000      0.000      0.000
pip253           POINT339         OUT011           443.78     0.0130     0.000      0.000      0.000      0.000
pip254           POINT337         POINT336         479.01     0.0130     0.000      0.000      0.000      0.000
pip255           POINT336         OUT012           427.42     0.0130     0.000      0.000      0.000      0.000
pip256           POINT348         POINT346         545.17     0.0130     0.000      0.000      0.000      0.000
pip257           POINT347         POINT346         456.43     0.0130     0.000      0.000      0.000      0.000
pip258           POINT346         POINT345         345.00     0.0130     0.000      0.000      0.000      0.000
pip259           POINT349         POINT345         522.61     0.0130     0.000      0.000      0.000      0.000
pip260           POINT345         POINT343         139.27     0.0130     0.000      0.000      0.000      0.000
pip261           POINT344         POINT343         389.48     0.0130     0.000      0.000      0.000      0.000
pip262           POINT343         OUT010           329.23     0.0130     0.000      0.000      0.000      0.000
pip264           POINT351         OUT009           467.95     0.0130     0.000      0.000      0.000      0.000
pip265           POINT330         POINT329         666.42     0.0130     0.000      0.000      0.000      0.000
pip266           POINT331         POINT329         394.46     0.0130     0.000      0.000      0.000      0.000
pip267           POINT328         POINT329         225.08     0.0130     0.000      0.000      0.000      0.000
pip268           POINT328         POINT327         414.39     0.0130     0.000      0.000      0.000      0.000
pip269           POINT326         POINT327         471.34     0.0130     0.000      0.000      0.000      0.000
pip270           POINT319         POINT326         330.69     0.0130     0.000      0.000      0.000      0.000
pip271           POINT361         POINT359         630.73     0.0130     0.000      0.000      0.000      0.000
pip272           POINT359         POINT357         625.39     0.0130     0.000      0.000      0.000      0.000
pip273           POINT360         POINT359         844.21     0.0130     0.000      0.000      0.000      0.000
pip274           POINT358         POINT357         308.40     0.0130     0.000      0.000      0.000      0.000
pip275           POINT355         POINT357         647.37     0.0130     0.000      0.000      0.000      0.000
pip276           POINT353         POINT355         536.86     0.0130     0.000      0.000      0.000      0.000
pip277           POINT356         POINT355         577.96     0.0130     0.000      0.000      0.000      0.000
pip278           POINT353         POINT354         601.25     0.0130     0.000      0.000      0.000      0.000
pip279           POINT353         OUT008           508.96     0.0130     0.000      0.000      0.000      0.000
pip280           POINT385         OUT003           542.97     0.0130     0.000      0.000      0.000      0.000
pip281           POINT363         OUT007           395.19     0.0130     0.000      0.000      0.000      0.000
pip282           POINT365         OUT006           683.90     0.0130     0.000      0.000      0.000      0.000
pip283           POINT383         POINT382         726.22     0.0130     0.000      0.000      0.000      0.000
pip284           POINT382         POINT374         1024.15    0.0130     0.000      0.000      0.000      0.000
pip285           POINT374         POINT369         150.35     0.0130     0.000      0.000      0.000      0.000
pip286           POINT368         POINT367         350.05     0.0130     0.000      0.000      0.000      0.000
pip287           POINT367         OUT005           306.23     0.0130     0.000      0.000      0.000      0.000
pip288           POINT381         POINT376         563.75     0.0130     0.000      0.000      0.000      0.000
pip289           POINT377         POINT376         605.39     0.0130     0.000      0.000      0.000      0.000
pip290           POINT376         POINT378         264.88     0.0130     0.000      0.000      0.000      0.000
pip291           POINT380         POINT379         431.97     0.0130     0.000      0.000      0.000      0.000
pip292           POINT379         POINT378         307.84     0.0130     0.000      0.000      0.000      0.000
pip293           POINT378         POINT375         389.63     0.0130     0.000      0.000      0.000      0.000
pip294           POINT375         POINT374         268.22     0.0130     0.000      0.000      0.000      0.000
pip295           POINT371         POINT370         714.82     0.0130     0.000      0.000      0.000      0.000
pip296           POINT370         POINT369         346.94     0.0130     0.000      0.000      0.000      0.000
pip297           OUT001           POINT369         96.13      0.0130     0.000      0.000      0.000      0.000
pip298           POINT373         OUT004           462.53     0.0130     0.000      0.000      0.000      0.000
pip299           POINT388         POINT387         621.67     0.0130     0.000      0.000      0.000      0.000
pip300           POINT387         OUT002           640.40     0.0130     0.000      0.000      0.000      0.000
OUT_LINK_OUT014  OUT014           OUT014_OF        20.00      0.0130     0.000      0.000      0.000      0.000
OUT_LINK_OUT001  OUT001           OUT001_OF        20.00      0.0130     0.000      0.000      0.000      0.000

[XSECTIONS]
;;Link           Shape      Geom1      Geom2  Geom3  Geom4  Barrels
pip173           CIRCULAR   4.900      0      0      0      1
pip174           CIRCULAR   4.900      0      0      0      1
pip175           CIRCULAR   6.250      0      0      0      1
pip176           CIRCULAR   6.100      0      0      0      1
pip177           CIRCULAR   4.900      0      0      0      1
pip178           CIRCULAR   1.500      0      0      0      1
pip179           CIRCULAR   2.440      0      0      0      1
pip180           CIRCULAR   3.800      0      0      0      1
pip181           CIRCULAR   4.600      0      0      0      1
pip182           CIRCULAR   4.600      0      0      0      1
pip183           CIRCULAR   5.000      0      0      0      1
pip184           CIRCULAR   6.050      0      0      0      1
pip185           CIRCULAR   6.050      0      0      0      1
pip186           CIRCULAR   6.500      0      0      0      1
pip187           CIRCULAR   5.000      0      0      0      1
pip188           CIRCULAR   6.150      0      0      0      1
pip189           CIRCULAR   3.000      0      0      0      1
pip190           CIRCULAR   5.800      0      0      0      1
pip191           CIRCULAR   6.900      0      0      0      1
pip192           CIRCULAR   1.650      0      0      0      1
pip193           CIRCULAR   5.050      0      0      0      1
pip194           CIRCULAR   5.650      0      0      0      1
pip195           CIRCULAR   6.000      0      0      0      1
pip196           CIRCULAR   3.700      0      0      0      1
pip197           CIRCULAR   5.250      0      0      0      1
pip198           CIRCULAR   4.800      0      0      0      1
pip199           CIRCULAR   3.100      0      0      0      1
pip200           CIRCULAR   4.000      0      0      0      1
pip201           CIRCULAR   3.100      0      0      0      1
pip202           CIRCULAR   2.600      0      0      0      1
pip203           CIRCULAR   3.200      0      0      0      1
pip204           CIRCULAR   4.500      0      0      0      1
pip205           CIRCULAR   8.000      0      0      0      1
pip206           CIRCULAR   3.100      0      0      0      1
pip207           CIRCULAR   4.800      0      0      0      1
pip208           CIRCULAR   4.800      0      0      0      1
pip209           CIRCULAR   4.600      0      0      0      1
pip210           CIRCULAR   4.800      0      0      0      1
pip211           CIRCULAR   4.800      0      0      0      1
pip212           CIRCULAR   3.450      0      0      0      1
pip213           CIRCULAR   4.500      0      0      0      1
pip214           CIRCULAR   4.500      0      0      0      1
pip215           CIRCULAR   6.300      0      0      0      1
pip216           CIRCULAR   4.500      0      0      0      1
pip217           CIRCULAR   6.450      0      0      0      1
pip218           CIRCULAR   3.600      0      0      0      1
pip219           CIRCULAR   6.300      0      0      0      1
pip220           CIRCULAR   4.800      0      0      0      1
pip221           CIRCULAR   4.500      0      0      0      1
pip222           CIRCULAR   4.000      0      0      0      1
pip223           CIRCULAR   6.600      0      0      0      1
pip224           CIRCULAR   1.350      0      0      0      1
pip225           CIRCULAR   3.025      0      0      0      1
pip226           CIRCULAR   2.590      0      0      0      1
pip227           CIRCULAR   2.590      0      0      0      1
pip228           CIRCULAR   3.500      0      0      0      1
pip229           CIRCULAR   5.400      0      0      0      1
pip230           CIRCULAR   4.200      0      0      0      1
pip231           CIRCULAR   4.200      0      0      0      1
pip232           CIRCULAR   5.100      0      0      0      1
pip233           CIRCULAR   4.500      0      0      0      1
pip234           CIRCULAR   2.400      0      0      0      1
pip235           CIRCULAR   3.775      0      0      0      1
pip236           CIRCULAR   2.100      0      0      0      1
pip237           CIRCULAR   3.350      0      0      0      1
pip238           CIRCULAR   4.400      0      0      0      1
pip239           CIRCULAR   4.800      0      0      0      1
pip240           CIRCULAR   4.300      0      0      0      1
pip241           CIRCULAR   7.350      0      0      0      1
pip242           CIRCULAR   5.300      0      0      0      1
pip243           CIRCULAR   5.000      0      0      0      1
pip244           CIRCULAR   6.050      0      0      0      1
pip245           CIRCULAR   5.000      0      0      0      1
pip246           CIRCULAR   5.000      0      0      0      1
pip247           CIRCULAR   6.350      0      0      0      1
pip248           CIRCULAR   5.000      0      0      0      1
pip249           CIRCULAR   5.000      0      0      0      1
pip250           CIRCULAR   5.000      0      0      0      1
pip251           CIRCULAR   1.500      0      0      0      1
pip252           CIRCULAR   1.425      0      0      0      1
pip253           CIRCULAR   1.425      0      0      0      1
pip254           CIRCULAR   2.250      0      0      0      1
pip255           CIRCULAR   4.800      0      0      0      1
pip256           CIRCULAR   1.800      0      0      0      1
pip257           CIRCULAR   4.830      0      0      0      1
pip258           CIRCULAR   3.048      0      0      0      1
pip259           CIRCULAR   3.900      0      0      0      1
pip260           CIRCULAR   3.048      0      0      0      1
pip261           CIRCULAR   4.000      0      0      0      1
pip262           CIRCULAR   3.048      0      0      0      1
pip264           CIRCULAR   3.630      0      0      0      1
pip265           CIRCULAR   3.350      0      0      0      1
pip266           CIRCULAR   2.700      0      0      0      1
pip267           CIRCULAR   4.000      0      0      0      1
pip268           CIRCULAR   4.000      0      0      0      1
pip269           CIRCULAR   4.000      0      0      0      1
pip270           CIRCULAR   4.000      0      0      0      1
pip271           CIRCULAR   2.700      0      0      0      1
pip272           CIRCULAR   4.115      0      0      0      1
pip273           CIRCULAR   3.000      0      0      0      1
pip274           CIRCULAR   1.650      0      0      0      1
pip275           CIRCULAR   4.120      0      0      0      1
pip276           CIRCULAR   4.120      0      0      0      1
pip277           CIRCULAR   3.300      0      0      0      1
pip278           CIRCULAR   4.120      0      0      0      1
pip279           CIRCULAR   5.620      0      0      0      1
pip280           CIRCULAR   4.800      0      0      0      1
pip281           CIRCULAR   3.000      0      0      0      1
pip282           CIRCULAR   3.750      0      0      0      1
pip283           CIRCULAR   2.100      0      0      0      1
pip284           CIRCULAR   5.100      0      0      0      1
pip285           CIRCULAR   5.000      0      0      0      1
pip286           CIRCULAR   2.700      0      0      0      1
pip287           CIRCULAR   13.716     0      0      0      1
pip288           CIRCULAR   4.900      0      0      0      1
pip289           CIRCULAR   4.900      0      0      0      1
pip290           CIRCULAR   4.900      0      0      0      1
pip291           CIRCULAR   2.100      0      0      0      1
pip292           CIRCULAR   4.900      0      0      0      1
pip293           CIRCULAR   4.900      0      0      0      1
pip294           CIRCULAR   5.000      0      0      0      1
pip295           CIRCULAR   4.300      0      0      0      1
pip296           CIRCULAR   4.350      0      0      0      1
pip297           CIRCULAR   13.716     0      0      0      1
pip298           CIRCULAR   1.575      0      0      0      1
pip299           CIRCULAR   4.600      0      0      0      1
pip300           CIRCULAR   4.600      0      0      0      1
OUT_LINK_OUT014  CIRCULAR   2.000      0      0      0      1
OUT_LINK_OUT001  CIRCULAR   2.000      0      0      0      1

[RAINGAGES]
;;Name           Format     Interval  SCF      Source
RG1              INTENSITY  0:05     1.0      TIMESERIES Rainfall

[SUBCATCHMENTS]
;;Name           RainGage   Outlet           Area      %Imperv  Width     %Slope    CurbLen
Catchment_44     RG1        POINT387         36.8956   55.00    607.42    1.200    0
Catchment_45     RG1        POINT296         51.2803   55.00    716.10    1.200    0
Catchment_46     RG1        POINT305         24.2538   55.00    492.48    1.200    0
Catchment_47     RG1        POINT299         32.8139   55.00    572.83    1.200    0
Catchment_48     RG1        POINT297         22.7976   55.00    477.47    1.200    0
Catchment_49     RG1        POINT303         34.7541   55.00    589.53    1.200    0
Catchment_50     RG1        POINT302         13.7627   55.00    370.98    1.200    0
Catchment_51     RG1        POINT304         26.5978   55.00    515.73    1.200    0
Catchment_52     RG1        POINT293         34.8057   55.00    589.96    1.200    0
Catchment_53     RG1        POINT300         30.6346   55.00    553.49    1.200    0
Catchment_54     RG1        POINT306         35.9065   55.00    599.22    1.200    0
Catchment_55     RG1        POINT294         36.1582   55.00    601.32    1.200    0
Catchment_56     RG1        POINT373         53.7442   55.00    733.10    1.200    0
Catchment_57     RG1        POINT388         48.7725   55.00    698.37    1.200    0
Catchment_58     RG1        POINT371         52.1817   55.00    722.37    1.200    0
Catchment_59     RG1        POINT370         19.4439   55.00    440.95    1.200    0
Catchment_60     RG1        OUT001           15.7560   55.00    396.94    1.200    0
Catchment_61     RG1        POINT275         56.6014   55.00    752.34    1.200    0
Catchment_62     RG1        POINT374         12.2525   55.00    350.04    1.200    0
Catchment_63     RG1        POINT307         51.8738   55.00    720.23    1.200    0
Catchment_64     RG1        POINT375         13.7905   55.00    371.36    1.200    0
Catchment_65     RG1        POINT376         33.7110   55.00    580.61    1.200    0
Catchment_66     RG1        POINT381         31.7705   55.00    563.65    1.200    0
Catchment_67     RG1        POINT240         55.7614   55.00    746.74    1.200    0
Catchment_70     RG1        POINT242         33.4366   55.00    578.24    1.200    0
Catchment_71     RG1        POINT249         37.7289   55.00    614.24    1.200    0
Catchment_72     RG1        POINT256         42.3426   55.00    650.71    1.200    0
Catchment_73     RG1        POINT291         39.5743   55.00    629.08    1.200    0
Catchment_74     RG1        POINT341         40.2264   55.00    634.24    1.200    0
Catchment_75     RG1        POINT348         26.7246   55.00    516.96    1.200    0
Catchment_76     RG1        POINT347         34.4172   55.00    586.66    1.200    0
Catchment_77     RG1        POINT330         43.3088   55.00    658.09    1.200    0
Catchment_78     RG1        POINT360         48.4541   55.00    696.09    1.200    0
Catchment_79     RG1        POINT385         57.0427   55.00    755.27    1.200    0
Catchment_80     RG1        POINT351         19.5609   55.00    442.28    1.200    0
Catchment_81     RG1        POINT359         44.4885   55.00    667.00    1.200    0
Catchment_82     RG1        POINT340         11.9505   55.00    345.70    1.200    0
Catchment_83     RG1        POINT349         24.8828   55.00    498.83    1.200    0
Catchment_84     RG1        POINT383         61.4949   55.00    784.19    1.200    0
Catchment_85     RG1        POINT337         30.8888   55.00    555.78    1.200    0
Catchment_86     RG1        POINT290         69.5742   55.00    834.11    1.200    0
Catchment_87     RG1        POINT266         36.5531   55.00    604.59    1.200    0
Catchment_88     RG1        POINT289         30.5297   55.00    552.54    1.200    0
Catchment_89     RG1        POINT346         19.8603   55.00    445.65    1.200    0
Catchment_90     RG1        POINT241         24.9123   55.00    499.12    1.200    0
Catchment_91     RG1        POINT241         28.0929   55.00    530.03    1.200    0
Catchment_92     RG1        POINT378         19.3326   55.00    439.69    1.200    0
Catchment_93     RG1        POINT367         21.5977   55.00    464.73    1.200    0
Catchment_94     RG1        POINT365         28.3658   55.00    532.60    1.200    0
Catchment_95     RG1        POINT278         25.9879   55.00    509.78    1.200    0
Catchment_96     RG1        POINT276         22.1307   55.00    470.43    1.200    0
Catchment_97     RG1        POINT277         18.1586   55.00    426.13    1.200    0
Catchment_98     RG1        POINT379         15.5107   55.00    393.84    1.200    0
Catchment_99     RG1        POINT309         70.6254   55.00    840.39    1.200    0
Catchment_100    RG1        POINT363         59.4071   55.00    770.76    1.200    0
Catchment_101    RG1        POINT368         25.4756   55.00    504.73    1.200    0
Catchment_102    RG1        POINT281         47.1505   55.00    686.66    1.200    0
Catchment_103    RG1        POINT279         15.5347   55.00    394.14    1.200    0
Catchment_104    RG1        POINT271         25.2800   55.00    502.79    1.200    0
Catchment_105    RG1        POINT380         25.2551   55.00    502.54    1.200    0
Catchment_106    RG1        POINT270         34.9092   55.00    590.84    1.200    0
Catchment_107    RG1        POINT280         21.2486   55.00    460.96    1.200    0
Catchment_108    RG1        POINT353         45.8271   55.00    676.96    1.200    0
Catchment_109    RG1        POINT282         26.3732   55.00    513.55    1.200    0
Catchment_110    RG1        POINT272         23.9665   55.00    489.56    1.200    0
Catchment_111    RG1        POINT264         25.9295   55.00    509.21    1.200    0
Catchment_112    RG1        POINT265         23.5560   55.00    485.34    1.200    0
Catchment_113    RG1        POINT286         26.9852   55.00    519.47    1.200    0
Catchment_114    RG1        POINT287         20.8878   55.00    457.03    1.200    0
Catchment_115    RG1        POINT505         41.7980   55.00    646.51    1.200    0
Catchment_116    RG1        POINT260         19.3744   55.00    440.16    1.200    0
Catchment_117    RG1        POINT239         14.8053   55.00    384.78    1.200    0
Catchment_118    RG1        POINT240         25.9681   55.00    509.59    1.200    0
Catchment_119    RG1        POINT246         19.0834   55.00    436.85    1.200    0
Catchment_120    RG1        POINT243         14.9525   55.00    386.68    1.200    0
Catchment_121    RG1        POINT247         15.1724   55.00    389.52    1.200    0
Catchment_122    RG1        POINT255         9.8577    55.00    313.97    1.200    0
Catchment_123    RG1        POINT248         15.2157   55.00    390.07    1.200    0
Catchment_124    RG1        POINT254         18.7426   55.00    432.93    1.200    0
Catchment_125    RG1        POINT244         15.3708   55.00    392.06    1.200    0
Catchment_126    RG1        POINT288         20.6555   55.00    454.48    1.200    0
Catchment_127    RG1        POINT357         16.4402   55.00    405.47    1.200    0
Catchment_128    RG1        POINT328         18.3643   55.00    428.54    1.200    0
Catchment_129    RG1        POINT333         19.7202   55.00    444.07    1.200    0
Catchment_130    RG1        POINT329         18.1103   55.00    425.56    1.200    0
Catchment_131    RG1        POINT332         19.2896   55.00    439.20    1.200    0
Catchment_132    RG1        POINT321         13.3757   55.00    365.73    1.200    0
Catchment_133    RG1        OUT014           32.0006   55.00    565.69    1.200    0
Catchment_134    RG1        POINT316         19.7130   55.00    443.99    1.200    0
Catchment_135    RG1        POINT317         34.6310   55.00    588.48    1.200    0
Catchment_136    RG1        POINT336         37.6679   55.00    613.74    1.200    0
Catchment_137    RG1        POINT320         11.7867   55.00    343.32    1.200    0
Catchment_138    RG1        POINT263         19.4368   55.00    440.87    1.200    0
Catchment_139    RG1        POINT259         17.7558   55.00    421.38    1.200    0
Catchment_140    RG1        POINT251         27.5618   55.00    524.99    1.200    0
Catchment_141    RG1        POINT326         19.3633   55.00    440.04    1.200    0
Catchment_142    RG1        POINT355         25.2236   55.00    502.23    1.200    0
Catchment_143    RG1        POINT358         17.7518   55.00    421.33    1.200    0
Catchment_144    RG1        POINT327         17.1634   55.00    414.29    1.200    0
Catchment_145    RG1        POINT262         29.6381   55.00    544.41    1.200    0
Catchment_146    RG1        POINT354         69.1100   55.00    831.32    1.200    0
Catchment_147    RG1        POINT324         19.3806   55.00    440.23    1.200    0
Catchment_148    RG1        POINT322         17.6342   55.00    419.93    1.200    0
Catchment_149    RG1        POINT325         17.0886   55.00    413.38    1.200    0
Catchment_150    RG1        POINT313         31.6535   55.00    562.61    1.200    0
Catchment_151    RG1        POINT356         43.4747   55.00    659.35    1.200    0
Catchment_152    RG1        POINT273         28.1945   55.00    530.98    1.200    0
Catchment_153    RG1        POINT284         47.2991   55.00    687.74    1.200    0
Catchment_154    RG1        POINT258         21.4736   55.00    463.40    1.200    0
Catchment_155    RG1        POINT252         12.0209   55.00    346.71    1.200    0
Catchment_156    RG1        POINT253         9.6009    55.00    309.85    1.200    0
Catchment_157    RG1        POINT285         35.0133   55.00    591.72    1.200    0
Catchment_158    RG1        POINT283         31.4039   55.00    560.39    1.200    0
Catchment_159    RG1        POINT312         60.5124   55.00    777.90    1.200    0
Catchment_160    RG1        POINT268         20.7779   55.00    455.83    1.200    0
Catchment_161    RG1        POINT382         43.9589   55.00    663.01    1.200    0
Catchment_162    RG1        POINT323         24.8561   55.00    498.56    1.200    0
Catchment_163    RG1        POINT319         17.7616   55.00    421.44    1.200    0
Catchment_164    RG1        POINT267         9.4439    55.00    307.31    1.200    0
Catchment_165    RG1        POINT311         31.5229   55.00    561.45    1.200    0
Catchment_166    RG1        POINT334         17.8388   55.00    422.36    1.200    0
Catchment_167    RG1        POINT339         22.4785   55.00    474.11    1.200    0
Catchment_168    RG1        POINT331         12.3053   55.00    350.79    1.200    0
Catchment_169    RG1        POINT343         14.0315   55.00    374.59    1.200    0
Catchment_170    RG1        POINT344         14.1380   55.00    376.01    1.200    0
Catchment_171    RG1        POINT345         8.0080    55.00    282.98    1.200    0

[SUBAREAS]
;;Subcatchment   N-Imperv  N-Perv    S-Imperv  S-Perv    PctZero   RouteTo   PctRouted
Catchment_44     0.015     0.15      1.500     1.500     25        OUTLET
Catchment_45     0.015     0.15      1.500     1.500     25        OUTLET
Catchment_46     0.015     0.15      1.500     1.500     25        OUTLET
Catchment_47     0.015     0.15      1.500     1.500     25        OUTLET
Catchment_48     0.015     0.15      1.500     1.500     25        OUTLET
Catchment_49     0.015     0.15      1.500     1.500     25        OUTLET
Catchment_50     0.015     0.15      1.500     1.500     25        OUTLET
Catchment_51     0.015     0.15      1.500     1.500     25        OUTLET
Catchment_52     0.015     0.15      1.500     1.500     25        OUTLET
Catchment_53     0.015     0.15      1.500     1.500     25        OUTLET
Catchment_54     0.015     0.15      1.500     1.500     25        OUTLET
Catchment_55     0.015     0.15      1.500     1.500     25        OUTLET
Catchment_56     0.015     0.15      1.500     1.500     25        OUTLET
Catchment_57     0.015     0.15      1.500     1.500     25        OUTLET
Catchment_58     0.015     0.15      1.500     1.500     25        OUTLET
Catchment_59     0.015     0.15      1.500     1.500     25        OUTLET
Catchment_60     0.015     0.15      1.500     1.500     25        OUTLET
Catchment_61     0.015     0.15      1.500     1.500     25        OUTLET
Catchment_62     0.015     0.15      1.500     1.500     25        OUTLET
Catchment_63     0.015     0.15      1.500     1.500     25        OUTLET
Catchment_64     0.015     0.15      1.500     1.500     25        OUTLET
Catchment_65     0.015     0.15      1.500     1.500     25        OUTLET
Catchment_66     0.015     0.15      1.500     1.500     25        OUTLET
Catchment_67     0.015     0.15      1.500     1.500     25        OUTLET
Catchment_70     0.015     0.15      1.500     1.500     25        OUTLET
Catchment_71     0.015     0.15      1.500     1.500     25        OUTLET
Catchment_72     0.015     0.15      1.500     1.500     25        OUTLET
Catchment_73     0.015     0.15      1.500     1.500     25        OUTLET
Catchment_74     0.015     0.15      1.500     1.500     25        OUTLET
Catchment_75     0.015     0.15      1.500     1.500     25        OUTLET
Catchment_76     0.015     0.15      1.500     1.500     25        OUTLET
Catchment_77     0.015     0.15      1.500     1.500     25        OUTLET
Catchment_78     0.015     0.15      1.500     1.500     25        OUTLET
Catchment_79     0.015     0.15      1.500     1.500     25        OUTLET
Catchment_80     0.015     0.15      1.500     1.500     25        OUTLET
Catchment_81     0.015     0.15      1.500     1.500     25        OUTLET
Catchment_82     0.015     0.15      1.500     1.500     25        OUTLET
Catchment_83     0.015     0.15      1.500     1.500     25        OUTLET
Catchment_84     0.015     0.15      1.500     1.500     25        OUTLET
Catchment_85     0.015     0.15      1.500     1.500     25        OUTLET
Catchment_86     0.015     0.15      1.500     1.500     25        OUTLET
Catchment_87     0.015     0.15      1.500     1.500     25        OUTLET
Catchment_88     0.015     0.15      1.500     1.500     25        OUTLET
Catchment_89     0.015     0.15      1.500     1.500     25        OUTLET
Catchment_90     0.015     0.15      1.500     1.500     25        OUTLET
Catchment_91     0.015     0.15      1.500     1.500     25        OUTLET
Catchment_92     0.015     0.15      1.500     1.500     25        OUTLET
Catchment_93     0.015     0.15      1.500     1.500     25        OUTLET
Catchment_94     0.015     0.15      1.500     1.500     25        OUTLET
Catchment_95     0.015     0.15      1.500     1.500     25        OUTLET
Catchment_96     0.015     0.15      1.500     1.500     25        OUTLET
Catchment_97     0.015     0.15      1.500     1.500     25        OUTLET
Catchment_98     0.015     0.15      1.500     1.500     25        OUTLET
Catchment_99     0.015     0.15      1.500     1.500     25        OUTLET
Catchment_100    0.015     0.15      1.500     1.500     25        OUTLET
Catchment_101    0.015     0.15      1.500     1.500     25        OUTLET
Catchment_102    0.015     0.15      1.500     1.500     25        OUTLET
Catchment_103    0.015     0.15      1.500     1.500     25        OUTLET
Catchment_104    0.015     0.15      1.500     1.500     25        OUTLET
Catchment_105    0.015     0.15      1.500     1.500     25        OUTLET
Catchment_106    0.015     0.15      1.500     1.500     25        OUTLET
Catchment_107    0.015     0.15      1.500     1.500     25        OUTLET
Catchment_108    0.015     0.15      1.500     1.500     25        OUTLET
Catchment_109    0.015     0.15      1.500     1.500     25        OUTLET
Catchment_110    0.015     0.15      1.500     1.500     25        OUTLET
Catchment_111    0.015     0.15      1.500     1.500     25        OUTLET
Catchment_112    0.015     0.15      1.500     1.500     25        OUTLET
Catchment_113    0.015     0.15      1.500     1.500     25        OUTLET
Catchment_114    0.015     0.15      1.500     1.500     25        OUTLET
Catchment_115    0.015     0.15      1.500     1.500     25        OUTLET
Catchment_116    0.015     0.15      1.500     1.500     25        OUTLET
Catchment_117    0.015     0.15      1.500     1.500     25        OUTLET
Catchment_118    0.015     0.15      1.500     1.500     25        OUTLET
Catchment_119    0.015     0.15      1.500     1.500     25        OUTLET
Catchment_120    0.015     0.15      1.500     1.500     25        OUTLET
Catchment_121    0.015     0.15      1.500     1.500     25        OUTLET
Catchment_122    0.015     0.15      1.500     1.500     25        OUTLET
Catchment_123    0.015     0.15      1.500     1.500     25        OUTLET
Catchment_124    0.015     0.15      1.500     1.500     25        OUTLET
Catchment_125    0.015     0.15      1.500     1.500     25        OUTLET
Catchment_126    0.015     0.15      1.500     1.500     25        OUTLET
Catchment_127    0.015     0.15      1.500     1.500     25        OUTLET
Catchment_128    0.015     0.15      1.500     1.500     25        OUTLET
Catchment_129    0.015     0.15      1.500     1.500     25        OUTLET
Catchment_130    0.015     0.15      1.500     1.500     25        OUTLET
Catchment_131    0.015     0.15      1.500     1.500     25        OUTLET
Catchment_132    0.015     0.15      1.500     1.500     25        OUTLET
Catchment_133    0.015     0.15      1.500     1.500     25        OUTLET
Catchment_134    0.015     0.15      1.500     1.500     25        OUTLET
Catchment_135    0.015     0.15      1.500     1.500     25        OUTLET
Catchment_136    0.015     0.15      1.500     1.500     25        OUTLET
Catchment_137    0.015     0.15      1.500     1.500     25        OUTLET
Catchment_138    0.015     0.15      1.500     1.500     25        OUTLET
Catchment_139    0.015     0.15      1.500     1.500     25        OUTLET
Catchment_140    0.015     0.15      1.500     1.500     25        OUTLET
Catchment_141    0.015     0.15      1.500     1.500     25        OUTLET
Catchment_142    0.015     0.15      1.500     1.500     25        OUTLET
Catchment_143    0.015     0.15      1.500     1.500     25        OUTLET
Catchment_144    0.015     0.15      1.500     1.500     25        OUTLET
Catchment_145    0.015     0.15      1.500     1.500     25        OUTLET
Catchment_146    0.015     0.15      1.500     1.500     25        OUTLET
Catchment_147    0.015     0.15      1.500     1.500     25        OUTLET
Catchment_148    0.015     0.15      1.500     1.500     25        OUTLET
Catchment_149    0.015     0.15      1.500     1.500     25        OUTLET
Catchment_150    0.015     0.15      1.500     1.500     25        OUTLET
Catchment_151    0.015     0.15      1.500     1.500     25        OUTLET
Catchment_152    0.015     0.15      1.500     1.500     25        OUTLET
Catchment_153    0.015     0.15      1.500     1.500     25        OUTLET
Catchment_154    0.015     0.15      1.500     1.500     25        OUTLET
Catchment_155    0.015     0.15      1.500     1.500     25        OUTLET
Catchment_156    0.015     0.15      1.500     1.500     25        OUTLET
Catchment_157    0.015     0.15      1.500     1.500     25        OUTLET
Catchment_158    0.015     0.15      1.500     1.500     25        OUTLET
Catchment_159    0.015     0.15      1.500     1.500     25        OUTLET
Catchment_160    0.015     0.15      1.500     1.500     25        OUTLET
Catchment_161    0.015     0.15      1.500     1.500     25        OUTLET
Catchment_162    0.015     0.15      1.500     1.500     25        OUTLET
Catchment_163    0.015     0.15      1.500     1.500     25        OUTLET
Catchment_164    0.015     0.15      1.500     1.500     25        OUTLET
Catchment_165    0.015     0.15      1.500     1.500     25        OUTLET
Catchment_166    0.015     0.15      1.500     1.500     25        OUTLET
Catchment_167    0.015     0.15      1.500     1.500     25        OUTLET
Catchment_168    0.015     0.15      1.500     1.500     25        OUTLET
Catchment_169    0.015     0.15      1.500     1.500     25        OUTLET
Catchment_170    0.015     0.15      1.500     1.500     25        OUTLET
Catchment_171    0.015     0.15      1.500     1.500     25        OUTLET

[INFILTRATION]
;;Subcatchment   MaxRate   MinRate   Decay     DryTime   MaxInfil
Catchment_44     45.000    6.000     3.500     7.0      0.0
Catchment_45     45.000    6.000     3.500     7.0      0.0
Catchment_46     45.000    6.000     3.500     7.0      0.0
Catchment_47     45.000    6.000     3.500     7.0      0.0
Catchment_48     45.000    6.000     3.500     7.0      0.0
Catchment_49     45.000    6.000     3.500     7.0      0.0
Catchment_50     45.000    6.000     3.500     7.0      0.0
Catchment_51     45.000    6.000     3.500     7.0      0.0
Catchment_52     45.000    6.000     3.500     7.0      0.0
Catchment_53     45.000    6.000     3.500     7.0      0.0
Catchment_54     45.000    6.000     3.500     7.0      0.0
Catchment_55     45.000    6.000     3.500     7.0      0.0
Catchment_56     45.000    6.000     3.500     7.0      0.0
Catchment_57     45.000    6.000     3.500     7.0      0.0
Catchment_58     45.000    6.000     3.500     7.0      0.0
Catchment_59     45.000    6.000     3.500     7.0      0.0
Catchment_60     45.000    6.000     3.500     7.0      0.0
Catchment_61     45.000    6.000     3.500     7.0      0.0
Catchment_62     45.000    6.000     3.500     7.0      0.0
Catchment_63     45.000    6.000     3.500     7.0      0.0
Catchment_64     45.000    6.000     3.500     7.0      0.0
Catchment_65     45.000    6.000     3.500     7.0      0.0
Catchment_66     45.000    6.000     3.500     7.0      0.0
Catchment_67     45.000    6.000     3.500     7.0      0.0
Catchment_70     45.000    6.000     3.500     7.0      0.0
Catchment_71     45.000    6.000     3.500     7.0      0.0
Catchment_72     45.000    6.000     3.500     7.0      0.0
Catchment_73     45.000    6.000     3.500     7.0      0.0
Catchment_74     45.000    6.000     3.500     7.0      0.0
Catchment_75     45.000    6.000     3.500     7.0      0.0
Catchment_76     45.000    6.000     3.500     7.0      0.0
Catchment_77     45.000    6.000     3.500     7.0      0.0
Catchment_78     45.000    6.000     3.500     7.0      0.0
Catchment_79     45.000    6.000     3.500     7.0      0.0
Catchment_80     45.000    6.000     3.500     7.0      0.0
Catchment_81     45.000    6.000     3.500     7.0      0.0
Catchment_82     45.000    6.000     3.500     7.0      0.0
Catchment_83     45.000    6.000     3.500     7.0      0.0
Catchment_84     45.000    6.000     3.500     7.0      0.0
Catchment_85     45.000    6.000     3.500     7.0      0.0
Catchment_86     45.000    6.000     3.500     7.0      0.0
Catchment_87     45.000    6.000     3.500     7.0      0.0
Catchment_88     45.000    6.000     3.500     7.0      0.0
Catchment_89     45.000    6.000     3.500     7.0      0.0
Catchment_90     45.000    6.000     3.500     7.0      0.0
Catchment_91     45.000    6.000     3.500     7.0      0.0
Catchment_92     45.000    6.000     3.500     7.0      0.0
Catchment_93     45.000    6.000     3.500     7.0      0.0
Catchment_94     45.000    6.000     3.500     7.0      0.0
Catchment_95     45.000    6.000     3.500     7.0      0.0
Catchment_96     45.000    6.000     3.500     7.0      0.0
Catchment_97     45.000    6.000     3.500     7.0      0.0
Catchment_98     45.000    6.000     3.500     7.0      0.0
Catchment_99     45.000    6.000     3.500     7.0      0.0
Catchment_100    45.000    6.000     3.500     7.0      0.0
Catchment_101    45.000    6.000     3.500     7.0      0.0
Catchment_102    45.000    6.000     3.500     7.0      0.0
Catchment_103    45.000    6.000     3.500     7.0      0.0
Catchment_104    45.000    6.000     3.500     7.0      0.0
Catchment_105    45.000    6.000     3.500     7.0      0.0
Catchment_106    45.000    6.000     3.500     7.0      0.0
Catchment_107    45.000    6.000     3.500     7.0      0.0
Catchment_108    45.000    6.000     3.500     7.0      0.0
Catchment_109    45.000    6.000     3.500     7.0      0.0
Catchment_110    45.000    6.000     3.500     7.0      0.0
Catchment_111    45.000    6.000     3.500     7.0      0.0
Catchment_112    45.000    6.000     3.500     7.0      0.0
Catchment_113    45.000    6.000     3.500     7.0      0.0
Catchment_114    45.000    6.000     3.500     7.0      0.0
Catchment_115    45.000    6.000     3.500     7.0      0.0
Catchment_116    45.000    6.000     3.500     7.0      0.0
Catchment_117    45.000    6.000     3.500     7.0      0.0
Catchment_118    45.000    6.000     3.500     7.0      0.0
Catchment_119    45.000    6.000     3.500     7.0      0.0
Catchment_120    45.000    6.000     3.500     7.0      0.0
Catchment_121    45.000    6.000     3.500     7.0      0.0
Catchment_122    45.000    6.000     3.500     7.0      0.0
Catchment_123    45.000    6.000     3.500     7.0      0.0
Catchment_124    45.000    6.000     3.500     7.0      0.0
Catchment_125    45.000    6.000     3.500     7.0      0.0
Catchment_126    45.000    6.000     3.500     7.0      0.0
Catchment_127    45.000    6.000     3.500     7.0      0.0
Catchment_128    45.000    6.000     3.500     7.0      0.0
Catchment_129    45.000    6.000     3.500     7.0      0.0
Catchment_130    45.000    6.000     3.500     7.0      0.0
Catchment_131    45.000    6.000     3.500     7.0      0.0
Catchment_132    45.000    6.000     3.500     7.0      0.0
Catchment_133    45.000    6.000     3.500     7.0      0.0
Catchment_134    45.000    6.000     3.500     7.0      0.0
Catchment_135    45.000    6.000     3.500     7.0      0.0
Catchment_136    45.000    6.000     3.500     7.0      0.0
Catchment_137    45.000    6.000     3.500     7.0      0.0
Catchment_138    45.000    6.000     3.500     7.0      0.0
Catchment_139    45.000    6.000     3.500     7.0      0.0
Catchment_140    45.000    6.000     3.500     7.0      0.0
Catchment_141    45.000    6.000     3.500     7.0      0.0
Catchment_142    45.000    6.000     3.500     7.0      0.0
Catchment_143    45.000    6.000     3.500     7.0      0.0
Catchment_144    45.000    6.000     3.500     7.0      0.0
Catchment_145    45.000    6.000     3.500     7.0      0.0
Catchment_146    45.000    6.000     3.500     7.0      0.0
Catchment_147    45.000    6.000     3.500     7.0      0.0
Catchment_148    45.000    6.000     3.500     7.0      0.0
Catchment_149    45.000    6.000     3.500     7.0      0.0
Catchment_150    45.000    6.000     3.500     7.0      0.0
Catchment_151    45.000    6.000     3.500     7.0      0.0
Catchment_152    45.000    6.000     3.500     7.0      0.0
Catchment_153    45.000    6.000     3.500     7.0      0.0
Catchment_154    45.000    6.000     3.500     7.0      0.0
Catchment_155    45.000    6.000     3.500     7.0      0.0
Catchment_156    45.000    6.000     3.500     7.0      0.0
Catchment_157    45.000    6.000     3.500     7.0      0.0
Catchment_158    45.000    6.000     3.500     7.0      0.0
Catchment_159    45.000    6.000     3.500     7.0      0.0
Catchment_160    45.000    6.000     3.500     7.0      0.0
Catchment_161    45.000    6.000     3.500     7.0      0.0
Catchment_162    45.000    6.000     3.500     7.0      0.0
Catchment_163    45.000    6.000     3.500     7.0      0.0
Catchment_164    45.000    6.000     3.500     7.0      0.0
Catchment_165    45.000    6.000     3.500     7.0      0.0
Catchment_166    45.000    6.000     3.500     7.0      0.0
Catchment_167    45.000    6.000     3.500     7.0      0.0
Catchment_168    45.000    6.000     3.500     7.0      0.0
Catchment_169    45.000    6.000     3.500     7.0      0.0
Catchment_170    45.000    6.000     3.500     7.0      0.0
Catchment_171    45.000    6.000     3.500     7.0      0.0

[POLLUTANTS]
;;Name           Units  Crain  Cgw    Crdii  Kdecay  SnowOnly  CoPollut  CoFrac  Cdwf   Cinit
TRACER           MG/L   0      0      0      0       NO        *         0       0      0
NH4N             MG/L   0      0      0      0       NO        *         0       0      0

[LANDUSES]
;;Name           SweepingInterval  Availability  LastSwept
URBAN            0                 0             0

[COVERAGES]
;;Subcatchment   LandUse          Percent
Catchment_44     URBAN            100
Catchment_45     URBAN            100
Catchment_46     URBAN            100
Catchment_47     URBAN            100
Catchment_48     URBAN            100
Catchment_49     URBAN            100
Catchment_50     URBAN            100
Catchment_51     URBAN            100
Catchment_52     URBAN            100
Catchment_53     URBAN            100
Catchment_54     URBAN            100
Catchment_55     URBAN            100
Catchment_56     URBAN            100
Catchment_57     URBAN            100
Catchment_58     URBAN            100
Catchment_59     URBAN            100
Catchment_60     URBAN            100
Catchment_61     URBAN            100
Catchment_62     URBAN            100
Catchment_63     URBAN            100
Catchment_64     URBAN            100
Catchment_65     URBAN            100
Catchment_66     URBAN            100
Catchment_67     URBAN            100
Catchment_70     URBAN            100
Catchment_71     URBAN            100
Catchment_72     URBAN            100
Catchment_73     URBAN            100
Catchment_74     URBAN            100
Catchment_75     URBAN            100
Catchment_76     URBAN            100
Catchment_77     URBAN            100
Catchment_78     URBAN            100
Catchment_79     URBAN            100
Catchment_80     URBAN            100
Catchment_81     URBAN            100
Catchment_82     URBAN            100
Catchment_83     URBAN            100
Catchment_84     URBAN            100
Catchment_85     URBAN            100
Catchment_86     URBAN            100
Catchment_87     URBAN            100
Catchment_88     URBAN            100
Catchment_89     URBAN            100
Catchment_90     URBAN            100
Catchment_91     URBAN            100
Catchment_92     URBAN            100
Catchment_93     URBAN            100
Catchment_94     URBAN            100
Catchment_95     URBAN            100
Catchment_96     URBAN            100
Catchment_97     URBAN            100
Catchment_98     URBAN            100
Catchment_99     URBAN            100
Catchment_100    URBAN            100
Catchment_101    URBAN            100
Catchment_102    URBAN            100
Catchment_103    URBAN            100
Catchment_104    URBAN            100
Catchment_105    URBAN            100
Catchment_106    URBAN            100
Catchment_107    URBAN            100
Catchment_108    URBAN            100
Catchment_109    URBAN            100
Catchment_110    URBAN            100
Catchment_111    URBAN            100
Catchment_112    URBAN            100
Catchment_113    URBAN            100
Catchment_114    URBAN            100
Catchment_115    URBAN            100
Catchment_116    URBAN            100
Catchment_117    URBAN            100
Catchment_118    URBAN            100
Catchment_119    URBAN            100
Catchment_120    URBAN            100
Catchment_121    URBAN            100
Catchment_122    URBAN            100
Catchment_123    URBAN            100
Catchment_124    URBAN            100
Catchment_125    URBAN            100
Catchment_126    URBAN            100
Catchment_127    URBAN            100
Catchment_128    URBAN            100
Catchment_129    URBAN            100
Catchment_130    URBAN            100
Catchment_131    URBAN            100
Catchment_132    URBAN            100
Catchment_133    URBAN            100
Catchment_134    URBAN            100
Catchment_135    URBAN            100
Catchment_136    URBAN            100
Catchment_137    URBAN            100
Catchment_138    URBAN            100
Catchment_139    URBAN            100
Catchment_140    URBAN            100
Catchment_141    URBAN            100
Catchment_142    URBAN            100
Catchment_143    URBAN            100
Catchment_144    URBAN            100
Catchment_145    URBAN            100
Catchment_146    URBAN            100
Catchment_147    URBAN            100
Catchment_148    URBAN            100
Catchment_149    URBAN            100
Catchment_150    URBAN            100
Catchment_151    URBAN            100
Catchment_152    URBAN            100
Catchment_153    URBAN            100
Catchment_154    URBAN            100
Catchment_155    URBAN            100
Catchment_156    URBAN            100
Catchment_157    URBAN            100
Catchment_158    URBAN            100
Catchment_159    URBAN            100
Catchment_160    URBAN            100
Catchment_161    URBAN            100
Catchment_162    URBAN            100
Catchment_163    URBAN            100
Catchment_164    URBAN            100
Catchment_165    URBAN            100
Catchment_166    URBAN            100
Catchment_167    URBAN            100
Catchment_168    URBAN            100
Catchment_169    URBAN            100
Catchment_170    URBAN            100
Catchment_171    URBAN            100

[BUILDUP]
;;LandUse        Pollutant        Function  Coeff1   Coeff2   Coeff3   PerUnit
URBAN            TRACER           POW       15.000   1.000    0        AREA
URBAN            NH4N             POW       5.000    1.000    0        AREA

[WASHOFF]
;;LandUse        Pollutant        Function  Coeff1   Coeff2   SweepRmvl  BmpRmvl
URBAN            TRACER           EMC       35.000   0        0          0
URBAN            NH4N             EMC       4.000    0        0          0

[TIMESERIES]
;;Name           Date        Time      Value
Rainfall         01/01/2026  00:00:00  0.00000000
Rainfall         01/01/2026  00:05:00  4.00000000
Rainfall         01/01/2026  00:10:00  8.00000000
Rainfall         01/01/2026  00:15:00  15.00000000
Rainfall         01/01/2026  00:20:00  22.00000000
Rainfall         01/01/2026  00:25:00  35.00000000
Rainfall         01/01/2026  00:30:00  52.00000000
Rainfall         01/01/2026  00:35:00  74.00000000
Rainfall         01/01/2026  00:40:00  96.00000000
Rainfall         01/01/2026  00:45:00  80.00000000
Rainfall         01/01/2026  00:50:00  58.00000000
Rainfall         01/01/2026  00:55:00  40.00000000
Rainfall         01/01/2026  01:00:00  28.00000000
Rainfall         01/01/2026  01:05:00  20.00000000
Rainfall         01/01/2026  01:10:00  14.00000000
Rainfall         01/01/2026  01:15:00  8.00000000
Rainfall         01/01/2026  01:20:00  4.00000000
Rainfall         01/01/2026  01:25:00  2.00000000
Rainfall         01/01/2026  01:30:00  0.00000000
Rainfall         01/01/2026  01:35:00  0.00000000
Rainfall         01/01/2026  01:40:00  0.00000000
Rainfall         01/01/2026  01:45:00  0.00000000
Rainfall         01/01/2026  01:50:00  0.00000000
Rainfall         01/01/2026  01:55:00  0.00000000
Rainfall         01/01/2026  02:00:00  0.00000000
Rainfall         01/01/2026  02:05:00  0.00000000
Rainfall         01/01/2026  02:10:00  0.00000000
Rainfall         01/01/2026  02:15:00  0.00000000
Rainfall         01/01/2026  02:20:00  0.00000000
Rainfall         01/01/2026  02:25:00  0.00000000
Rainfall         01/01/2026  02:30:00  0.00000000
Rainfall         01/01/2026  02:35:00  0.00000000
Rainfall         01/01/2026  02:40:00  0.00000000
Rainfall         01/01/2026  02:45:00  0.00000000
Rainfall         01/01/2026  02:50:00  0.00000000
Rainfall         01/01/2026  02:55:00  0.00000000
Rainfall         01/01/2026  03:00:00  0.00000000

[COORDINATES]
;;Node           X          Y
POINT239         833028.46  821252.39 
POINT240         832892.64  821647.74 
POINT241         832940.40  822136.80 
POINT242         833479.96  822343.94 
POINT243         832961.39  821908.96 
POINT244         833431.69  822077.60 
POINT246         833358.35  821412.58 
POINT247         833564.33  821678.71 
POINT248         833816.08  821974.22 
POINT249         834080.48  822299.83 
POINT251         833744.57  821097.49 
POINT252         833938.78  821330.32 
POINT253         834063.83  821486.52 
POINT254         834232.60  821715.20 
POINT255         833891.45  821680.31 
POINT256         834707.05  822236.70 
POINT258         834246.20  820952.43 
POINT259         834555.49  821315.29 
POINT260         834624.23  821593.15 
POINT262         834204.09  820441.25 
POINT263         834576.93  820786.69 
POINT264         834997.52  821282.92 
POINT265         835351.99  821710.84 
POINT266         835029.57  821958.59 
POINT267         834935.26  820505.77 
POINT268         834724.88  820460.11 
POINT270         835043.12  819916.30 
POINT271         835461.92  819825.75 
POINT272         835087.61  820372.95 
POINT273         835177.58  820827.80 
POINT275         834875.19  818934.28 
POINT276         835205.17  819508.10 
POINT277         835617.46  819602.70 
POINT278         835300.13  819281.06 
POINT279         835972.66  819719.66 
POINT280         836118.88  819934.88 
POINT281         836567.14  819767.42 
POINT282         836316.40  820215.05 
POINT283         836672.24  820409.32 
POINT284         835806.18  820848.49 
POINT285         836413.29  820891.89 
POINT286         835614.66  821461.00 
POINT287         835818.51  821743.36 
POINT288         836187.43  821863.41 
POINT289         835974.71  822148.30 
POINT290         836509.59  822312.77 
POINT291         836121.37  822344.97 
POINT293         835248.49  818421.27 
POINT294         835609.59  818630.50 
POINT296         835775.51  817691.66 
POINT297         835745.55  818187.62 
POINT299         836203.13  817957.72 
POINT300         836046.68  818303.49 
POINT302         837089.00  818324.00 
POINT303         836775.18  818478.73 
POINT304         836958.00  818599.00 
POINT305         837205.64  818032.74 
POINT306         837184.56  818555.26 
POINT307         836174.70  819354.25 
POINT309         837511.86  819259.52 
POINT311         837489.82  820624.35 
POINT312         837363.95  820058.96 
POINT313         836994.74  820867.31 
POINT315         837874.59  821358.69 
POINT316         837615.00  821523.00 
POINT317         837168.00  821419.00 
POINT319         838830.65  820655.52 
POINT320         838656.16  820973.39 
POINT321         838524.86  821103.76 
POINT322         838315.76  820948.92 
POINT323         838056.17  820698.20 
POINT324         837802.91  820913.23 
POINT325         837321.00  821301.00 
POINT326         839061.93  820891.88 
POINT327         839171.65  821326.38 
POINT328         839193.17  821740.82 
POINT329         839097.71  821943.57 
POINT330         839528.90  822440.05 
POINT331         838761.16  822148.09 
POINT332         838753.62  821374.78 
POINT333         838808.04  821714.66 
POINT334         838757.25  822027.76 
POINT336         837661.28  822036.04 
POINT337         837549.99  822480.28 
POINT339         837824.13  822334.11 
POINT340         837683.60  822651.25 
POINT341         837570.05  822897.10 
POINT343         838493.03  822512.38 
POINT344         838226.29  822669.05 
POINT345         838514.24  822650.03 
POINT346         838633.01  822962.00 
POINT347         839080.73  823053.31 
POINT348         838695.20  823474.70 
POINT349         838212.14  822913.78 
POINT351         838731.55  822447.32 
POINT353         839581.28  820298.34 
POINT354         840149.73  820347.95 
POINT355         839537.65  820802.90 
POINT356         840006.25  820878.03 
POINT357         839517.45  821399.10 
POINT358         839756.93  821282.03 
POINT359         839919.37  821623.34 
POINT360         840689.55  821567.15 
POINT361         840091.93  822152.67 
POINT363         840534.04  819550.43 
POINT365         841164.75  819419.04 
POINT367         841390.04  819283.27 
POINT368         841307.31  819604.82 
POINT369         841621.24  819110.01 
POINT370         841898.97  818904.19 
POINT371         842200.39  818509.27 
POINT373         841683.59  818472.83 
POINT374         841711.08  819230.57 
POINT375         841995.67  819236.39 
POINT376         842475.43  819515.95 
POINT377         842971.73  819797.89 
POINT378         842256.99  819379.12 
POINT379         842157.78  819652.31 
POINT380         841917.22  819976.20 
POINT381         842278.94  820024.66 
POINT382         841458.90  820105.36 
POINT383         841592.66  820551.45 
POINT385         841264.19  821309.27 
POINT387         842761.57  817375.82 
POINT388         842598.38  817967.69 
POINT505         836463.17  821499.55 
OUT027           832998.07  821068.12 
OUT026           833145.80  820975.32 
OUT025           833167.39  820961.76 
OUT024           833786.16  820483.03 
OUT023           834008.12  820111.18 
OUT022           834474.66  819734.62 
OUT021           834521.16  818805.48 
OUT020           835219.77  817993.37 
OUT019           835807.20  817144.93 
OUT018           836525.44  817679.58 
OUT017           837258.38  817857.81 
OUT016           837816.23  819264.59 
OUT015           838196.16  820168.11 
OUT014           838066.62  821550.69 
OUT013           838778.64  820346.50 
OUT012           838059.15  821907.00 
OUT011           838176.30  822076.03 
OUT010           838324.03  822236.30 
OUT009           838394.52  822259.81 
OUT008           839207.83  819905.71 
OUT007           840328.23  819306.31 
OUT006           840709.62  818927.67 
OUT005           841596.21  819069.95 
OUT004           841363.56  818802.44 
OUT003           840941.15  820889.34 
OUT002           842373.02  816904.23 
OUT001           841573.23  819028.73 
OUT014_OF        838076.62  821560.69 
OUT001_OF        841583.23  819038.73 

[REPORT]
INPUT      NO
CONTROLS   NO
SUBCATCHMENTS ALL
NODES ALL
LINKS ALL

